# Compound: Zn7W7O30. Old comment: O30W7
   1.00000000000000     
     4.6673658500000004    0.0000000000000000    0.0000000000000000
     0.0000000000000000    5.7182516300000001    0.0000000000000000
     0.0000000000000000    0.0000000000000000   39.4105898400000001
   Zn   W    O 
     7     7    30
Direct
  0.4817285870172494  0.6537975024810541  0.3429916180184665
  0.4616418433275811  0.6729167967552554  0.4653026813495731
  0.4622927926213975  0.3167029694599288  0.4021813607389536
  0.4471306700724213  0.6729167967552554  0.5908128120504268
  0.4543862566999977  0.3226899935460313  0.5280577467000001
  0.4270439263827530  0.6537975024810541  0.7131238753815337
  0.4464797206786032  0.3167029694599288  0.6539341326610468
  0.9749435299832887  0.1822462327110795  0.3348767749107407
  0.9570995905914674  0.1761815265755775  0.4655273078002083
  0.9685228320143677  0.8191218997767903  0.4026336188616820
  0.9516729228085279  0.1761815265755775  0.5905881855997911
  0.9543862566999977  0.8171840641097774  0.5280577467000001
  0.9338289834167137  0.1822462327110795  0.7212387184892591
  0.9402496812856329  0.8191218997767903  0.6534818745383184
  0.7548827664239733  0.1053795588199210  0.3806294619719133
  0.1659286497134126  0.1044874623298840  0.2983205720882150
  0.1704284961824232  0.8818255769690952  0.3612594065003981
  0.6788854387360002  0.9395778534794991  0.3275679375288292
  0.7425121424589118  0.4165579572030070  0.3207804358832503
  0.2433878014807809  0.3696199365378391  0.3580243930881439
  0.7388688023869918  0.1032666731778252  0.5052016814114748
  0.1788146995029812  0.1050419680194657  0.4253993664640330
  0.1753234997459817  0.8904421523366923  0.4884992326812125
  0.7467853681409606  0.8923830760806567  0.4426758200675686
  0.7015303898251840  0.3728844821973445  0.4467371180554979
  0.2163064559585590  0.3718119845404372  0.4844196138243569
  0.2284471207310965  0.6259540875456687  0.4218804975984410
  0.7113989140284105  0.6136194714229206  0.3862957283686944
  0.7299578138970215  0.1050419680194657  0.6307161269359675
  0.1699037110130104  0.1032666731778252  0.5509138119885253
  0.1619871452590415  0.8923830760806567  0.6134396733324317
  0.7334490135540191  0.8904421523366923  0.5676162607187881
  0.6924660574414433  0.3718119845404372  0.5716958795756432
  0.2072421234748163  0.3728844821973445  0.6093783753445028
  0.2109614191487515  0.6208010927521537  0.5471457135517253
  0.6978110942512440  0.6208010927521537  0.5089697798482749
  0.7428438635865883  0.1044874623298840  0.7577949213117854
  0.1538897468760272  0.1053795588199210  0.6754860314280867
  0.2298870746640021  0.9395778534794991  0.7285475558711710
  0.7383440172175791  0.8818255769690952  0.6948560868996018
  0.6653847119192215  0.3696199365378391  0.6980911003118553
  0.1662603709410834  0.4165579572030070  0.7353350575167494
  0.1973735992715902  0.6136194714229206  0.6698197650313054
  0.6803253925689039  0.6259540875456687  0.6342349958015586
 
  0.00000000E+00  0.00000000E+00  0.00000000E+00
  0.00000000E+00  0.00000000E+00  0.00000000E+00
  0.00000000E+00  0.00000000E+00  0.00000000E+00
  0.00000000E+00  0.00000000E+00  0.00000000E+00
  0.00000000E+00  0.00000000E+00  0.00000000E+00
  0.00000000E+00  0.00000000E+00  0.00000000E+00
  0.00000000E+00  0.00000000E+00  0.00000000E+00
  0.00000000E+00  0.00000000E+00  0.00000000E+00
  0.00000000E+00  0.00000000E+00  0.00000000E+00
  0.00000000E+00  0.00000000E+00  0.00000000E+00
  0.00000000E+00  0.00000000E+00  0.00000000E+00
  0.00000000E+00  0.00000000E+00  0.00000000E+00
  0.00000000E+00  0.00000000E+00  0.00000000E+00
  0.00000000E+00  0.00000000E+00  0.00000000E+00
  0.00000000E+00  0.00000000E+00  0.00000000E+00
  0.00000000E+00  0.00000000E+00  0.00000000E+00
  0.00000000E+00  0.00000000E+00  0.00000000E+00
  0.00000000E+00  0.00000000E+00  0.00000000E+00
  0.00000000E+00  0.00000000E+00  0.00000000E+00
  0.00000000E+00  0.00000000E+00  0.00000000E+00
  0.00000000E+00  0.00000000E+00  0.00000000E+00
  0.00000000E+00  0.00000000E+00  0.00000000E+00
  0.00000000E+00  0.00000000E+00  0.00000000E+00
  0.00000000E+00  0.00000000E+00  0.00000000E+00
  0.00000000E+00  0.00000000E+00  0.00000000E+00
  0.00000000E+00  0.00000000E+00  0.00000000E+00
  0.00000000E+00  0.00000000E+00  0.00000000E+00
  0.00000000E+00  0.00000000E+00  0.00000000E+00
  0.00000000E+00  0.00000000E+00  0.00000000E+00
  0.00000000E+00  0.00000000E+00  0.00000000E+00
  0.00000000E+00  0.00000000E+00  0.00000000E+00
  0.00000000E+00  0.00000000E+00  0.00000000E+00
  0.00000000E+00  0.00000000E+00  0.00000000E+00
  0.00000000E+00  0.00000000E+00  0.00000000E+00
  0.00000000E+00  0.00000000E+00  0.00000000E+00
  0.00000000E+00  0.00000000E+00  0.00000000E+00
  0.00000000E+00  0.00000000E+00  0.00000000E+00
  0.00000000E+00  0.00000000E+00  0.00000000E+00
  0.00000000E+00  0.00000000E+00  0.00000000E+00
  0.00000000E+00  0.00000000E+00  0.00000000E+00
  0.00000000E+00  0.00000000E+00  0.00000000E+00
  0.00000000E+00  0.00000000E+00  0.00000000E+00
  0.00000000E+00  0.00000000E+00  0.00000000E+00
  0.00000000E+00  0.00000000E+00  0.00000000E+00
