# Compound: Zn8W8O28. Old comment: O28W8
   1.00000000000000     
     4.6673658500000004    0.0000000000000000    0.0000000000000000
     0.0000000000000000    5.7182516300000001    0.0000000000000000
     0.0000000000000000    0.0000000000000000   39.4105898400000001
   Zn   W    O 
     8     8    28
Direct
  0.4746178040675652  0.6733135673315700  0.3360681664610760
  0.4282011482255673  0.3527300701437501  0.2873544259698740
  0.4556193940596438  0.6709369744952395  0.4621124638077269
  0.4707613456874667  0.3152836189904318  0.3989430017387784
  0.4439614264125326  0.6847163810095680  0.5882879850612218
  0.4591033779403608  0.3290630255047608  0.5251185229922730
  0.4865216237744301  0.6472699298562499  0.6998765608301261
  0.4401049680324342  0.3266864326684296  0.6511628203389248
 -0.0074565590165830  0.1443886863915592  0.3355287325116230
  0.0591396445855217  0.6980608467209171  0.2880662188944259
  0.9635425900146314  0.1772694336893896  0.4621756157233739
  0.9606476009463821  0.8128183002822856  0.4000383235842442
  0.9540751711536172  0.1871816997177139  0.5871926632157566
  0.9511801819853732  0.8227305663106101  0.5250553710766268
  0.8555831274144752  0.3019391532790825  0.6991647679055744
  0.9221793311165826  0.8556113136084406  0.6517022542883774
  0.7574072116002217  0.0989896048455600  0.3751184661068754
  0.2197159920595198  0.0315135048640516  0.2977278067014800
  0.1979210979062196  0.8800640740524662  0.3614288672006975
  0.7736656494976806  0.8731943557908441  0.3155491098761602
  0.8474131753252915  0.3927200886327782  0.3062095344636681
  0.2626783288061258  0.3429073604199632  0.3535180081563993
  0.0978167495017391  0.7169635407799400  0.2452115343724706
  0.7151920437022301  0.6128314204669156  0.3795027231619064
  0.7411378780050810  0.1069645252873973  0.5019957410813876
  0.1807731002003420  0.1006342663136927  0.4226729185780138
  0.1735848940949177  0.8930354747126024  0.4852352457186129
  0.7407739310372354  0.8885490223189995  0.4392316591330228
  0.7031405784969458  0.3694488357424117  0.4427928359870182
  0.2163733531865376  0.3761512370347667  0.4813021524990219
  0.2198632294140450  0.6157181105228604  0.4185889759218235
  0.6983494188134605  0.6238487629652327  0.5059288343009771
  0.7168016740937783  0.1199359259475333  0.6258021195993027
  0.1739488409627625  0.1114509776810004  0.5479993276669772
  0.1573155604997785  0.9010103951544407  0.6121125206931245
  0.7339496718996578  0.8993657336863077  0.5645580682219864
  0.6948595426859537  0.3842818894771398  0.5686420108781775
  0.1995307283977764  0.3871685795330853  0.6077282636380927
  0.2115821936030533  0.6305511642575884  0.5444381508129819
  0.6520444432938731  0.6570926395800363  0.6337129786435999
  0.1410571226023177  0.1268056442091563  0.6716818769238388
  0.6950067800404787  0.9684864951359479  0.6895031800985204
  0.8169060224982588  0.2830364592200599  0.7420194524275289
  0.0673095967747070  0.6072799113672228  0.6810214523363333
 
  0.00000000E+00  0.00000000E+00  0.00000000E+00
  0.00000000E+00  0.00000000E+00  0.00000000E+00
  0.00000000E+00  0.00000000E+00  0.00000000E+00
  0.00000000E+00  0.00000000E+00  0.00000000E+00
  0.00000000E+00  0.00000000E+00  0.00000000E+00
  0.00000000E+00  0.00000000E+00  0.00000000E+00
  0.00000000E+00  0.00000000E+00  0.00000000E+00
  0.00000000E+00  0.00000000E+00  0.00000000E+00
  0.00000000E+00  0.00000000E+00  0.00000000E+00
  0.00000000E+00  0.00000000E+00  0.00000000E+00
  0.00000000E+00  0.00000000E+00  0.00000000E+00
  0.00000000E+00  0.00000000E+00  0.00000000E+00
  0.00000000E+00  0.00000000E+00  0.00000000E+00
  0.00000000E+00  0.00000000E+00  0.00000000E+00
  0.00000000E+00  0.00000000E+00  0.00000000E+00
  0.00000000E+00  0.00000000E+00  0.00000000E+00
  0.00000000E+00  0.00000000E+00  0.00000000E+00
  0.00000000E+00  0.00000000E+00  0.00000000E+00
  0.00000000E+00  0.00000000E+00  0.00000000E+00
  0.00000000E+00  0.00000000E+00  0.00000000E+00
  0.00000000E+00  0.00000000E+00  0.00000000E+00
  0.00000000E+00  0.00000000E+00  0.00000000E+00
  0.00000000E+00  0.00000000E+00  0.00000000E+00
  0.00000000E+00  0.00000000E+00  0.00000000E+00
  0.00000000E+00  0.00000000E+00  0.00000000E+00
  0.00000000E+00  0.00000000E+00  0.00000000E+00
  0.00000000E+00  0.00000000E+00  0.00000000E+00
  0.00000000E+00  0.00000000E+00  0.00000000E+00
  0.00000000E+00  0.00000000E+00  0.00000000E+00
  0.00000000E+00  0.00000000E+00  0.00000000E+00
  0.00000000E+00  0.00000000E+00  0.00000000E+00
  0.00000000E+00  0.00000000E+00  0.00000000E+00
  0.00000000E+00  0.00000000E+00  0.00000000E+00
  0.00000000E+00  0.00000000E+00  0.00000000E+00
  0.00000000E+00  0.00000000E+00  0.00000000E+00
  0.00000000E+00  0.00000000E+00  0.00000000E+00
  0.00000000E+00  0.00000000E+00  0.00000000E+00
  0.00000000E+00  0.00000000E+00  0.00000000E+00
  0.00000000E+00  0.00000000E+00  0.00000000E+00
  0.00000000E+00  0.00000000E+00  0.00000000E+00
  0.00000000E+00  0.00000000E+00  0.00000000E+00
  0.00000000E+00  0.00000000E+00  0.00000000E+00
  0.00000000E+00  0.00000000E+00  0.00000000E+00
  0.00000000E+00  0.00000000E+00  0.00000000E+00
