# Compound: Zn8W8O30. Old comment: O30W8
   1.00000000000000     
     4.6673658500000004    0.0000000000000000    0.0000000000000000
     0.0000000000000000    5.7182516300000001    0.0000000000000000
     0.0000000000000000    0.0000000000000000   39.4105898400000001
   Zn   W    O 
     8     8    30
Direct
  0.4623737897834141  0.6681831151915993  0.3413372159800407
  0.4913097713983835  0.3329162584540794  0.2784108266021433
  0.4585967486994479  0.6753145873327124  0.4654253222701391
  0.4669293561377548  0.3232081485760566  0.4031608453900025
  0.4472419208622465  0.6767918514239433  0.5904546480099975
  0.4555745283005533  0.3246854126672876  0.5281901711298608
  0.4228615056016177  0.6670837415459206  0.7152046667978564
  0.4517974872165871  0.3318168848084009  0.6522782774199597
  0.9725426255088053  0.1794407228731926  0.3400431708040429
  0.9563571096161084  0.7967891531486070  0.2828605787973323
  0.9611716167003251  0.1795020400935391  0.4655387939020976
  0.9621950653386580  0.8211365371343529  0.4029338915150414
  0.9519762116613433  0.1788634628656469  0.5906816018849582
  0.9529996602996690  0.8204979599064608  0.5280766994979028
  0.9578141673838928  0.2032108468513930  0.7107549146026672
  0.9416286514911959  0.8205592771268070  0.6535723225959570
  0.7527883605935451  0.1081668806275286  0.3800209440876589
  0.1663540216975003  0.1018178121426758  0.2976647975620817
  0.1781448792459545  0.8905964265388496  0.3623938441505698
  0.7161446829239364  0.9046925248613493  0.3174767215827655
  0.7240969333577271  0.3870199372090879  0.3213470332194867
  0.2375530978721494  0.3715317950067618  0.3585453588559722
  0.2585490432211512  0.6150893427237524  0.2938099496301037
  0.7406603440422812  0.6233357249187124  0.2559448698231254
  0.7399282487382315  0.1063050514890052  0.5051850611483820
  0.1808281601197358  0.1063492255788427  0.4258601334667994
  0.1742430282617697  0.8936949485109952  0.4884304322516179
  0.7431587943400773  0.8943764415032989  0.4425263446051972
  0.7039529848526660  0.3762541748282170  0.4466528562130410
  0.2171117687815584  0.3764180162805989  0.4845566144750735
  0.2219870501763967  0.6255539166260725  0.4216527958859453
  0.7077724586440540  0.6218518357450650  0.3842168505536471
  0.7360263977540468  0.1094035734611501  0.6312216492494296
  0.1710124826599246  0.1056235584967012  0.5510891487948031
  0.1613829164064561  0.8918331193724718  0.6135945493123409
  0.7333431168802654  0.8936507744211575  0.5677553599332001
  0.6921842268236047  0.3744460833739270  0.5719626975140545
  0.2063988182559526  0.3781481642549349  0.6093986428463534
  0.2102182921473284  0.6237458251717831  0.5469626371869595
  0.6970595082184431  0.6235819837194011  0.5090588789249268
  0.1980265940760650  0.0953074751386502  0.6761387718172345
  0.7478172553025005  0.8981821878573240  0.6959506958379180
  0.6556222337788500  0.3849106572762477  0.6998055437698966
  0.1735109329577202  0.3766642750812874  0.7376706235768749
  0.1900743436422674  0.6129800627909123  0.6722684601805133
  0.6766181791278517  0.6284682049932387  0.6350701345440282
 
  0.00000000E+00  0.00000000E+00  0.00000000E+00
  0.00000000E+00  0.00000000E+00  0.00000000E+00
  0.00000000E+00  0.00000000E+00  0.00000000E+00
  0.00000000E+00  0.00000000E+00  0.00000000E+00
  0.00000000E+00  0.00000000E+00  0.00000000E+00
  0.00000000E+00  0.00000000E+00  0.00000000E+00
  0.00000000E+00  0.00000000E+00  0.00000000E+00
  0.00000000E+00  0.00000000E+00  0.00000000E+00
  0.00000000E+00  0.00000000E+00  0.00000000E+00
  0.00000000E+00  0.00000000E+00  0.00000000E+00
  0.00000000E+00  0.00000000E+00  0.00000000E+00
  0.00000000E+00  0.00000000E+00  0.00000000E+00
  0.00000000E+00  0.00000000E+00  0.00000000E+00
  0.00000000E+00  0.00000000E+00  0.00000000E+00
  0.00000000E+00  0.00000000E+00  0.00000000E+00
  0.00000000E+00  0.00000000E+00  0.00000000E+00
  0.00000000E+00  0.00000000E+00  0.00000000E+00
  0.00000000E+00  0.00000000E+00  0.00000000E+00
  0.00000000E+00  0.00000000E+00  0.00000000E+00
  0.00000000E+00  0.00000000E+00  0.00000000E+00
  0.00000000E+00  0.00000000E+00  0.00000000E+00
  0.00000000E+00  0.00000000E+00  0.00000000E+00
  0.00000000E+00  0.00000000E+00  0.00000000E+00
  0.00000000E+00  0.00000000E+00  0.00000000E+00
  0.00000000E+00  0.00000000E+00  0.00000000E+00
  0.00000000E+00  0.00000000E+00  0.00000000E+00
  0.00000000E+00  0.00000000E+00  0.00000000E+00
  0.00000000E+00  0.00000000E+00  0.00000000E+00
  0.00000000E+00  0.00000000E+00  0.00000000E+00
  0.00000000E+00  0.00000000E+00  0.00000000E+00
  0.00000000E+00  0.00000000E+00  0.00000000E+00
  0.00000000E+00  0.00000000E+00  0.00000000E+00
  0.00000000E+00  0.00000000E+00  0.00000000E+00
  0.00000000E+00  0.00000000E+00  0.00000000E+00
  0.00000000E+00  0.00000000E+00  0.00000000E+00
  0.00000000E+00  0.00000000E+00  0.00000000E+00
  0.00000000E+00  0.00000000E+00  0.00000000E+00
  0.00000000E+00  0.00000000E+00  0.00000000E+00
  0.00000000E+00  0.00000000E+00  0.00000000E+00
  0.00000000E+00  0.00000000E+00  0.00000000E+00
  0.00000000E+00  0.00000000E+00  0.00000000E+00
  0.00000000E+00  0.00000000E+00  0.00000000E+00
  0.00000000E+00  0.00000000E+00  0.00000000E+00
  0.00000000E+00  0.00000000E+00  0.00000000E+00
  0.00000000E+00  0.00000000E+00  0.00000000E+00
  0.00000000E+00  0.00000000E+00  0.00000000E+00
