# Compound: Zn7W7O32. Old comment: O32W7
   1.00000000000000     
     4.6673658500000004    0.0000000000000000    0.0000000000000000
     0.0000000000000000    5.7182516300000001    0.0000000000000000
     0.0000000000000000    0.0000000000000000   39.4105898400000001
   Zn   W    O 
     7     7    32
Direct
  0.4724323303579134  0.6603703039982294  0.3369805406600667
  0.4610061701635889  0.6689710969818901  0.4621656539105786
  0.4602874485653013  0.3168499723770029  0.3990022674771536
  0.4483178382364098  0.6689710969818901  0.5875653328894220
  0.4546620042000029  0.3183911178573244  0.5248654934000001
  0.4368916780420853  0.6603703039982294  0.7127504461399335
  0.4490365599346992  0.3168499723770029  0.6507287193228464
  0.9517527011289314  0.1820599360826255  0.3356397957430199
  0.9595564153121974  0.1739689964821221  0.4623892231166413
  0.9714894348771952  0.8156427697121733  0.3998150448520287
  0.9497675930878013  0.1739689964821221  0.5873417636833590
  0.9546620042000029  0.8133801476810777  0.5248654934000001
  0.9575713072710673  0.1820599360826255  0.7140911910569806
  0.9378345736228053  0.8156427697121733  0.6499159419479718
  0.7579435272867807  0.1057697424900412  0.3773987417702745
  0.1501844005330483  0.0803539077097661  0.2963558237296143
  0.2008401214534584  0.8937432254671777  0.3612748909687160
  0.7408831835734100  0.9000955900509049  0.3176946623050353
  0.7197282150871163  0.3955930483950761  0.3186021639110408
  0.2379593994999632  0.3669026322649209  0.3542222791701842
  0.1264379366358288  0.7362997243771461  0.3062625388593427
  0.7143984025568403  0.6215730950170520  0.3805621074012753
  0.7396782508522988  0.0997920930467989  0.5018810194532383
  0.1845978411617508  0.0988378677450266  0.4230825058518519
  0.1762817016218266  0.8874867843149820  0.4854172848889254
  0.7485928386277518  0.8872486284827912  0.4394152378677275
  0.7045965996759951  0.3692020806335867  0.4429428955269831
  0.2167540016955849  0.3703809737360376  0.4814075606676039
  0.2251593741030080  0.6139467321287200  0.4185709410562524
  0.6987108973960343  0.6170812557367272  0.5056763105381948
  0.7247261672382476  0.0988378677450266  0.6266484809481484
  0.1696457575476996  0.0997920930467989  0.5478499673467619
  0.1607311697722464  0.8872486284827912  0.6103157489322721
  0.7330423068781742  0.8874867843149820  0.5643137019110743
  0.6925700067044137  0.3703809737360376  0.5683234261323964
  0.2047274088240061  0.3692020806335867  0.6067880912730169
  0.2106131110039643  0.6170812557367272  0.5440546762618054
  0.6841646343969932  0.6139467321287200  0.6311600457437484
  0.7591396079669522  0.0803539077097661  0.7533751630703863
  0.1513804812132194  0.1057697424900412  0.6723322450297254
  0.1684408248265896  0.9000955900509049  0.7320363244949650
  0.7084838869465405  0.8937432254671777  0.6884560958312841
  0.6713646089000351  0.3669026322649209  0.6955087076298166
  0.1895957933128825  0.3955930483950761  0.7311288228889596
  0.1949256059431600  0.6215730950170520  0.6691688793987253
  0.7828860717641699  0.7362997243771461  0.7434684479406575
 
  0.00000000E+00  0.00000000E+00  0.00000000E+00
  0.00000000E+00  0.00000000E+00  0.00000000E+00
  0.00000000E+00  0.00000000E+00  0.00000000E+00
  0.00000000E+00  0.00000000E+00  0.00000000E+00
  0.00000000E+00  0.00000000E+00  0.00000000E+00
  0.00000000E+00  0.00000000E+00  0.00000000E+00
  0.00000000E+00  0.00000000E+00  0.00000000E+00
  0.00000000E+00  0.00000000E+00  0.00000000E+00
  0.00000000E+00  0.00000000E+00  0.00000000E+00
  0.00000000E+00  0.00000000E+00  0.00000000E+00
  0.00000000E+00  0.00000000E+00  0.00000000E+00
  0.00000000E+00  0.00000000E+00  0.00000000E+00
  0.00000000E+00  0.00000000E+00  0.00000000E+00
  0.00000000E+00  0.00000000E+00  0.00000000E+00
  0.00000000E+00  0.00000000E+00  0.00000000E+00
  0.00000000E+00  0.00000000E+00  0.00000000E+00
  0.00000000E+00  0.00000000E+00  0.00000000E+00
  0.00000000E+00  0.00000000E+00  0.00000000E+00
  0.00000000E+00  0.00000000E+00  0.00000000E+00
  0.00000000E+00  0.00000000E+00  0.00000000E+00
  0.00000000E+00  0.00000000E+00  0.00000000E+00
  0.00000000E+00  0.00000000E+00  0.00000000E+00
  0.00000000E+00  0.00000000E+00  0.00000000E+00
  0.00000000E+00  0.00000000E+00  0.00000000E+00
  0.00000000E+00  0.00000000E+00  0.00000000E+00
  0.00000000E+00  0.00000000E+00  0.00000000E+00
  0.00000000E+00  0.00000000E+00  0.00000000E+00
  0.00000000E+00  0.00000000E+00  0.00000000E+00
  0.00000000E+00  0.00000000E+00  0.00000000E+00
  0.00000000E+00  0.00000000E+00  0.00000000E+00
  0.00000000E+00  0.00000000E+00  0.00000000E+00
  0.00000000E+00  0.00000000E+00  0.00000000E+00
  0.00000000E+00  0.00000000E+00  0.00000000E+00
  0.00000000E+00  0.00000000E+00  0.00000000E+00
  0.00000000E+00  0.00000000E+00  0.00000000E+00
  0.00000000E+00  0.00000000E+00  0.00000000E+00
  0.00000000E+00  0.00000000E+00  0.00000000E+00
  0.00000000E+00  0.00000000E+00  0.00000000E+00
  0.00000000E+00  0.00000000E+00  0.00000000E+00
  0.00000000E+00  0.00000000E+00  0.00000000E+00
  0.00000000E+00  0.00000000E+00  0.00000000E+00
  0.00000000E+00  0.00000000E+00  0.00000000E+00
  0.00000000E+00  0.00000000E+00  0.00000000E+00
  0.00000000E+00  0.00000000E+00  0.00000000E+00
  0.00000000E+00  0.00000000E+00  0.00000000E+00
  0.00000000E+00  0.00000000E+00  0.00000000E+00
