# Compound: Zn8W8O32. Old comment: O32W8
   1.00000000000000     
     4.6673658500000004    0.0000000000000000    0.0000000000000000
     0.0000000000000000    5.7182516300000001    0.0000000000000000
     0.0000000000000000    0.0000000000000000   39.4105898400000001
   Zn   W    O 
     8     8    32
Direct
  0.4441938414897482  0.6462659658852077  0.3448471893142663
  0.5542588302343129  0.1575481375453537  0.2773943059870391
  0.4524218875977993  0.6728827510184872  0.4683800253031470
  0.4753214781206135  0.3114239607206021  0.4063844216251500
  0.4382983037793826  0.6885760392793979  0.5936155783748505
  0.4611978943021968  0.3271172489815129  0.5316199746968534
  0.3593609517656847  0.8424518624546466  0.7226056940129617
  0.4694259404102549  0.3537340341147925  0.6551528106857331
  0.9987191078116019  0.1542914004447402  0.3415119454618512
  0.8566316982620165  0.6656548197728652  0.2840863208944498
  0.9652174925874470  0.1788213667473544  0.4687902190313580
  0.9498646319397855  0.8175950888697920  0.4063044997519283
  0.9637551499602105  0.1824049111302086  0.5936955002480713
  0.9484022893125491  0.8211786332526456  0.5312097809686424
  0.0569880837379824  0.3343451802271351  0.7159136791055493
  0.9149006740884013  0.8457085995552603  0.6584880545381484
  0.7887126579438251 -0.0920078148186354  0.2565241637041044
  0.2169018001281581  0.1106634523185096  0.3041085618555817
  0.1826470055196565  0.8800394056605249  0.3657205380983692
  0.7361855543566568  0.8450096984061137  0.3227830496790609
  0.7449698074041404  0.3704026679383217  0.3225400915718842
  0.2333685511663655  0.3622895982969651  0.3623891699473380
  0.2310202245381809  0.6305570159913469  0.2911386964896682
  0.7300357471482662  0.4267282732086103  0.2581706662512542
  0.7568870811013834  0.0981140267971575  0.3822932685514046
  0.1792193789557540  0.1046756215393041  0.4290911700173052
  0.1720904719296601  0.8939554553065160  0.4914526922526341
  0.7381602356293547  0.8925525758294788  0.4458136740764371
  0.7023379970025784  0.3720660542336586  0.4501165412413024
  0.2172197741988790  0.3774901906868539  0.4879495949005713
  0.2167006990308886  0.6267042702849307  0.4248905701950074
  0.7047918363030632  0.6107131213706423  0.3881285260596809
  0.7415293099703425  0.1060445446934851  0.5085473077473668
  0.1754595463706507  0.1074474241705208  0.5541863259235633
  0.1567327007986197  0.9018859732028428  0.6177067314485959
  0.7344004029442481  0.8953243784606957  0.5709088299826941
  0.6969190828691142  0.3732957297150692  0.5751094298049917
  0.2088279455969336  0.3892868786293573  0.6118714739403192
  0.2112817848974180  0.6279339457663419  0.5498834587586974
  0.6964000077011160  0.6225098093131459  0.5120504050994288
  0.7309727763803396  0.1199605943394752  0.6342794619016310
  0.1774342275433463  0.1549903015938858  0.6772169503209381
  0.1249071240561729  0.0920078148186356  0.7434758362958955
  0.6967179817718446  0.8893365476814905  0.6958914381444179
  0.6825995574618237  0.3694429840086524  0.7088613035103309
  0.1835840348517315  0.5732717267913894  0.7418293337487464
  0.1686499744958557  0.6295973320616779  0.6774599084281162
  0.6802512307336388  0.6377104017030358  0.6376108300526616
 
  0.00000000E+00  0.00000000E+00  0.00000000E+00
  0.00000000E+00  0.00000000E+00  0.00000000E+00
  0.00000000E+00  0.00000000E+00  0.00000000E+00
  0.00000000E+00  0.00000000E+00  0.00000000E+00
  0.00000000E+00  0.00000000E+00  0.00000000E+00
  0.00000000E+00  0.00000000E+00  0.00000000E+00
  0.00000000E+00  0.00000000E+00  0.00000000E+00
  0.00000000E+00  0.00000000E+00  0.00000000E+00
  0.00000000E+00  0.00000000E+00  0.00000000E+00
  0.00000000E+00  0.00000000E+00  0.00000000E+00
  0.00000000E+00  0.00000000E+00  0.00000000E+00
  0.00000000E+00  0.00000000E+00  0.00000000E+00
  0.00000000E+00  0.00000000E+00  0.00000000E+00
  0.00000000E+00  0.00000000E+00  0.00000000E+00
  0.00000000E+00  0.00000000E+00  0.00000000E+00
  0.00000000E+00  0.00000000E+00  0.00000000E+00
  0.00000000E+00  0.00000000E+00  0.00000000E+00
  0.00000000E+00  0.00000000E+00  0.00000000E+00
  0.00000000E+00  0.00000000E+00  0.00000000E+00
  0.00000000E+00  0.00000000E+00  0.00000000E+00
  0.00000000E+00  0.00000000E+00  0.00000000E+00
  0.00000000E+00  0.00000000E+00  0.00000000E+00
  0.00000000E+00  0.00000000E+00  0.00000000E+00
  0.00000000E+00  0.00000000E+00  0.00000000E+00
  0.00000000E+00  0.00000000E+00  0.00000000E+00
  0.00000000E+00  0.00000000E+00  0.00000000E+00
  0.00000000E+00  0.00000000E+00  0.00000000E+00
  0.00000000E+00  0.00000000E+00  0.00000000E+00
  0.00000000E+00  0.00000000E+00  0.00000000E+00
  0.00000000E+00  0.00000000E+00  0.00000000E+00
  0.00000000E+00  0.00000000E+00  0.00000000E+00
  0.00000000E+00  0.00000000E+00  0.00000000E+00
  0.00000000E+00  0.00000000E+00  0.00000000E+00
  0.00000000E+00  0.00000000E+00  0.00000000E+00
  0.00000000E+00  0.00000000E+00  0.00000000E+00
  0.00000000E+00  0.00000000E+00  0.00000000E+00
  0.00000000E+00  0.00000000E+00  0.00000000E+00
  0.00000000E+00  0.00000000E+00  0.00000000E+00
  0.00000000E+00  0.00000000E+00  0.00000000E+00
  0.00000000E+00  0.00000000E+00  0.00000000E+00
  0.00000000E+00  0.00000000E+00  0.00000000E+00
  0.00000000E+00  0.00000000E+00  0.00000000E+00
  0.00000000E+00  0.00000000E+00  0.00000000E+00
  0.00000000E+00  0.00000000E+00  0.00000000E+00
  0.00000000E+00  0.00000000E+00  0.00000000E+00
  0.00000000E+00  0.00000000E+00  0.00000000E+00
  0.00000000E+00  0.00000000E+00  0.00000000E+00
  0.00000000E+00  0.00000000E+00  0.00000000E+00
