Generated by VASPKIT code
 1.000000
    9.3347317000000007    0.0000000000000000    0.0000000000000000
    0.0000000000000000   11.4365032600000003    0.0000000000000000
    0.0000000000000000    0.0000000000000000   39.4105898400000001
   Zn   W    O 
    32    32   128
Direct
    0.2220969207448741    0.3231329829426038    0.3448471893142663    Zn001
    0.2220969207448741    0.8231329829426038    0.3448471893142663    Zn002
    0.7220969207448741    0.3231329829426038    0.3448471893142663    Zn003
    0.7220969207448741    0.8231329829426038    0.3448471893142663    Zn004
    0.2771294151171564    0.0787740687726769    0.2773943059870392    Zn005
    0.2771294151171564    0.5787740687726768    0.2773943059870392    Zn006
    0.7771294151171564    0.0787740687726769    0.2773943059870392    Zn007
    0.7771294151171564    0.5787740687726768    0.2773943059870392    Zn008
    0.2262109437988996    0.3364413755092436    0.4683800253031469    Zn009
    0.2262109437988996    0.8364413755092436    0.4683800253031469    Zn010
    0.7262109437988996    0.3364413755092436    0.4683800253031469    Zn011
    0.7262109437988996    0.8364413755092436    0.4683800253031469    Zn012
    0.2376607390603067    0.1557119803603011    0.4063844216251500    Zn013
    0.2376607390603067    0.6557119803603011    0.4063844216251500    Zn014
    0.7376607390603067    0.1557119803603011    0.4063844216251500    Zn015
    0.7376607390603067    0.6557119803603011    0.4063844216251500    Zn016
    0.2191491518896913    0.3442880196396989    0.5936155783748505    Zn017
    0.2191491518896913    0.8442880196396989    0.5936155783748505    Zn018
    0.7191491518896913    0.3442880196396989    0.5936155783748505    Zn019
    0.7191491518896913    0.8442880196396989    0.5936155783748505    Zn020
    0.2305989471510984    0.1635586244907564    0.5316199746968534    Zn021
    0.2305989471510984    0.6635586244907564    0.5316199746968534    Zn022
    0.7305989471510984    0.1635586244907564    0.5316199746968534    Zn023
    0.7305989471510984    0.6635586244907564    0.5316199746968534    Zn024
    0.1796804758828423    0.4212259312273233    0.7226056940129617    Zn025
    0.1796804758828423    0.9212259312273233    0.7226056940129617    Zn026
    0.6796804758828423    0.4212259312273233    0.7226056940129617    Zn027
    0.6796804758828423    0.9212259312273233    0.7226056940129617    Zn028
    0.2347129702051275    0.1768670170573963    0.6551528106857331    Zn029
    0.2347129702051275    0.6768670170573963    0.6551528106857331    Zn030
    0.7347129702051275    0.1768670170573963    0.6551528106857331    Zn031
    0.7347129702051275    0.6768670170573963    0.6551528106857331    Zn032
    0.4993595539058009    0.0771457002223701    0.3415119454618512     W001
    0.4993595539058009    0.5771457002223701    0.3415119454618512     W002
    0.9993595539058009    0.0771457002223701    0.3415119454618512     W003
    0.9993595539058009    0.5771457002223701    0.3415119454618512     W004
    0.4283158491310082    0.3328274098864326    0.2840863208944497     W005
    0.4283158491310082    0.8328274098864326    0.2840863208944497     W006
    0.9283158491310082    0.3328274098864326    0.2840863208944497     W007
    0.9283158491310082    0.8328274098864326    0.2840863208944497     W008
    0.4826087462937235    0.0894106833736772    0.4687902190313580     W009
    0.4826087462937235    0.5894106833736772    0.4687902190313580     W010
    0.9826087462937235    0.0894106833736772    0.4687902190313580     W011
    0.9826087462937235    0.5894106833736772    0.4687902190313580     W012
    0.4749323159698928    0.4087975444348960    0.4063044997519283     W013
    0.4749323159698928    0.9087975444348960    0.4063044997519283     W014
    0.9749323159698928    0.4087975444348960    0.4063044997519283     W015
    0.9749323159698928    0.9087975444348960    0.4063044997519283     W016
    0.4818775749801052    0.0912024555651043    0.5936955002480713     W017
    0.4818775749801052    0.5912024555651043    0.5936955002480713     W018
    0.9818775749801052    0.0912024555651043    0.5936955002480713     W019
    0.9818775749801052    0.5912024555651043    0.5936955002480713     W020
    0.4742011446562746    0.4105893166263228    0.5312097809686424     W021
    0.4742011446562746    0.9105893166263228    0.5312097809686424     W022
    0.9742011446562746    0.4105893166263228    0.5312097809686424     W023
    0.9742011446562746    0.9105893166263228    0.5312097809686424     W024
    0.0284940418689912    0.1671725901135676    0.7159136791055493     W025
    0.0284940418689912    0.6671725901135676    0.7159136791055493     W026
    0.5284940418689912    0.1671725901135676    0.7159136791055493     W027
    0.5284940418689912    0.6671725901135676    0.7159136791055493     W028
    0.4574503370442007    0.4228542997776301    0.6584880545381484     W029
    0.4574503370442007    0.9228542997776301    0.6584880545381484     W030
    0.9574503370442007    0.4228542997776301    0.6584880545381484     W031
    0.9574503370442007    0.9228542997776301    0.6584880545381484     W032
    0.3943563289719125    0.9539960925906823    0.2565241637041045     O001
    0.3943563289719125    0.4539960925906823    0.2565241637041045     O002
    0.8943563289719125    0.9539960925906823    0.2565241637041045     O003
    0.8943563289719125    0.4539960925906823    0.2565241637041045     O004
    0.1084509000640791    0.0553317261592547    0.3041085618555817     O005
    0.1084509000640791    0.5553317261592547    0.3041085618555817     O006
    0.6084509000640790    0.0553317261592547    0.3041085618555817     O007
    0.6084509000640790    0.5553317261592547    0.3041085618555817     O008
    0.0913235027598283    0.4400197028302624    0.3657205380983692     O009
    0.0913235027598283    0.9400197028302624    0.3657205380983692     O010
    0.5913235027598283    0.4400197028302624    0.3657205380983692     O011
    0.5913235027598283    0.9400197028302624    0.3657205380983692     O012
    0.3680927771783284    0.4225048492030569    0.3227830496790609     O013
    0.3680927771783284    0.9225048492030569    0.3227830496790609     O014
    0.8680927771783284    0.4225048492030569    0.3227830496790609     O015
    0.8680927771783284    0.9225048492030569    0.3227830496790609     O016
    0.3724849037020702    0.1852013339691608    0.3225400915718841     O017
    0.3724849037020702    0.6852013339691608    0.3225400915718841     O018
    0.8724849037020702    0.1852013339691608    0.3225400915718841     O019
    0.8724849037020702    0.6852013339691608    0.3225400915718841     O020
    0.1166842755831827    0.1811447991484826    0.3623891699473381     O021
    0.1166842755831827    0.6811447991484826    0.3623891699473381     O022
    0.6166842755831827    0.1811447991484826    0.3623891699473381     O023
    0.6166842755831827    0.6811447991484826    0.3623891699473381     O024
    0.1155101122690905    0.3152785079956735    0.2911386964896683     O025
    0.1155101122690905    0.8152785079956735    0.2911386964896683     O026
    0.6155101122690905    0.3152785079956735    0.2911386964896683     O027
    0.6155101122690905    0.8152785079956735    0.2911386964896683     O028
    0.3650178735741332    0.2133641366043051    0.2581706662512542     O029
    0.3650178735741332    0.7133641366043051    0.2581706662512542     O030
    0.8650178735741332    0.2133641366043051    0.2581706662512542     O031
    0.8650178735741332    0.7133641366043051    0.2581706662512542     O032
    0.3784435405506916    0.0490570133985787    0.3822932685514047     O033
    0.3784435405506916    0.5490570133985788    0.3822932685514047     O034
    0.8784435405506916    0.0490570133985787    0.3822932685514047     O035
    0.8784435405506916    0.5490570133985788    0.3822932685514047     O036
    0.0896096894778770    0.0523378107696520    0.4290911700173052     O037
    0.0896096894778770    0.5523378107696520    0.4290911700173052     O038
    0.5896096894778771    0.0523378107696520    0.4290911700173052     O039
    0.5896096894778771    0.5523378107696520    0.4290911700173052     O040
    0.0860452359648300    0.4469777276532581    0.4914526922526341     O041
    0.0860452359648300    0.9469777276532581    0.4914526922526341     O042
    0.5860452359648300    0.4469777276532581    0.4914526922526341     O043
    0.5860452359648300    0.9469777276532581    0.4914526922526341     O044
    0.3690801178146774    0.4462762879147394    0.4458136740764371     O045
    0.3690801178146774    0.9462762879147394    0.4458136740764371     O046
    0.8690801178146774    0.4462762879147394    0.4458136740764371     O047
    0.8690801178146774    0.9462762879147394    0.4458136740764371     O048
    0.3511689985012891    0.1860330271168293    0.4501165412413024     O049
    0.3511689985012891    0.6860330271168293    0.4501165412413024     O050
    0.8511689985012891    0.1860330271168293    0.4501165412413024     O051
    0.8511689985012891    0.6860330271168293    0.4501165412413024     O052
    0.1086098870994395    0.1887450953434270    0.4879495949005713     O053
    0.1086098870994395    0.6887450953434270    0.4879495949005713     O054
    0.6086098870994395    0.1887450953434270    0.4879495949005713     O055
    0.6086098870994395    0.6887450953434270    0.4879495949005713     O056
    0.1083503495154443    0.3133521351424653    0.4248905701950074     O057
    0.1083503495154443    0.8133521351424653    0.4248905701950074     O058
    0.6083503495154443    0.3133521351424653    0.4248905701950074     O059
    0.6083503495154443    0.8133521351424653    0.4248905701950074     O060
    0.3523959181515316    0.3053565606853211    0.3881285260596810     O061
    0.3523959181515316    0.8053565606853211    0.3881285260596810     O062
    0.8523959181515316    0.3053565606853211    0.3881285260596810     O063
    0.8523959181515316    0.8053565606853211    0.3881285260596810     O064
    0.3707646549851713    0.0530222723467425    0.5085473077473668     O065
    0.3707646549851713    0.5530222723467426    0.5085473077473668     O066
    0.8707646549851713    0.0530222723467425    0.5085473077473668     O067
    0.8707646549851713    0.5530222723467426    0.5085473077473668     O068
    0.0877297731853254    0.0537237120852604    0.5541863259235633     O069
    0.0877297731853254    0.5537237120852604    0.5541863259235633     O070
    0.5877297731853254    0.0537237120852604    0.5541863259235633     O071
    0.5877297731853254    0.5537237120852604    0.5541863259235633     O072
    0.0783663503993098    0.4509429866014214    0.6177067314485959     O073
    0.0783663503993098    0.9509429866014214    0.6177067314485959     O074
    0.5783663503993098    0.4509429866014214    0.6177067314485959     O075
    0.5783663503993098    0.9509429866014214    0.6177067314485959     O076
    0.3672002014721241    0.4476621892303478    0.5709088299826941     O077
    0.3672002014721241    0.9476621892303478    0.5709088299826941     O078
    0.8672002014721241    0.4476621892303478    0.5709088299826941     O079
    0.8672002014721241    0.9476621892303478    0.5709088299826941     O080
    0.3484595414345570    0.1866478648575346    0.5751094298049917     O081
    0.3484595414345570    0.6866478648575346    0.5751094298049917     O082
    0.8484595414345570    0.1866478648575346    0.5751094298049917     O083
    0.8484595414345570    0.6866478648575346    0.5751094298049917     O084
    0.1044139727984668    0.1946434393146786    0.6118714739403192     O085
    0.1044139727984668    0.6946434393146786    0.6118714739403192     O086
    0.6044139727984668    0.1946434393146786    0.6118714739403192     O087
    0.6044139727984668    0.6946434393146786    0.6118714739403192     O088
    0.1056408924487090    0.3139669728831709    0.5498834587586974     O089
    0.1056408924487090    0.8139669728831709    0.5498834587586974     O090
    0.6056408924487090    0.3139669728831709    0.5498834587586974     O091
    0.6056408924487090    0.8139669728831709    0.5498834587586974     O092
    0.3482000038505579    0.3112549046565729    0.5120504050994288     O093
    0.3482000038505579    0.8112549046565729    0.5120504050994288     O094
    0.8482000038505579    0.3112549046565729    0.5120504050994288     O095
    0.8482000038505579    0.8112549046565729    0.5120504050994288     O096
    0.3654863881901698    0.0599802971697376    0.6342794619016310     O097
    0.3654863881901698    0.5599802971697376    0.6342794619016310     O098
    0.8654863881901698    0.0599802971697376    0.6342794619016310     O099
    0.8654863881901698    0.5599802971697376    0.6342794619016310     O100
    0.0887171137716731    0.0774951507969429    0.6772169503209381     O101
    0.0887171137716731    0.5774951507969429    0.6772169503209381     O102
    0.5887171137716731    0.0774951507969429    0.6772169503209381     O103
    0.5887171137716731    0.5774951507969429    0.6772169503209381     O104
    0.0624535620280865    0.0460039074093178    0.7434758362958955     O105
    0.0624535620280865    0.5460039074093178    0.7434758362958955     O106
    0.5624535620280864    0.0460039074093178    0.7434758362958955     O107
    0.5624535620280864    0.5460039074093178    0.7434758362958955     O108
    0.3483589908859224    0.4446682738407453    0.6958914381444179     O109
    0.3483589908859224    0.9446682738407453    0.6958914381444179     O110
    0.8483589908859224    0.4446682738407453    0.6958914381444179     O111
    0.8483589908859224    0.9446682738407453    0.6958914381444179     O112
    0.3412997787309118    0.1847214920043262    0.7088613035103309     O113
    0.3412997787309118    0.6847214920043262    0.7088613035103309     O114
    0.8412997787309118    0.1847214920043262    0.7088613035103309     O115
    0.8412997787309118    0.6847214920043262    0.7088613035103309     O116
    0.0917920174258657    0.2866358633956947    0.7418293337487464     O117
    0.0917920174258657    0.7866358633956947    0.7418293337487464     O118
    0.5917920174258657    0.2866358633956947    0.7418293337487464     O119
    0.5917920174258657    0.7866358633956947    0.7418293337487464     O120
    0.0843249872479278    0.3147986660308389    0.6774599084281162     O121
    0.0843249872479278    0.8147986660308389    0.6774599084281162     O122
    0.5843249872479279    0.3147986660308389    0.6774599084281162     O123
    0.5843249872479279    0.8147986660308389    0.6774599084281162     O124
    0.3401256153668194    0.3188552008515180    0.6376108300526616     O125
    0.3401256153668194    0.8188552008515180    0.6376108300526616     O126
    0.8401256153668194    0.3188552008515180    0.6376108300526616     O127
    0.8401256153668194    0.8188552008515180    0.6376108300526616     O128
