# Compound: Zn8W8O34. Old comment: O34W8
   1.00000000000000     
     4.9265814974000000    0.0000000000000000    0.0000000000000000
     0.0477443875000000    7.3810857030000001    0.0000000000000000
     0.0000000000000000    0.0000000000000000   36.1569788361000022
   Zn   W    O 
     8     8    34
Direct
  0.2296326633168476  0.1219757866218614  0.2907663768028510
  0.7341461711364606  0.3427259273675674  0.3184555412383478
  0.2233833600714862  0.7351493356606605  0.3849813825349210
  0.7283558750714189  0.9430958312516019  0.4193432372983676
  0.2189984258285839  0.3341144107484008  0.4857643681016302
  0.7239709407285143  0.5420609063393419  0.5201262228650771
  0.2132081296635401  0.9344843146324348  0.5866520641616503
  0.7177216374831525  0.1552344554781357  0.6143412285971539
  0.2244675330803809  0.6258695594638651  0.2796999124955229
  0.7238166239633533  0.8316840405416934  0.3196471649973615
  0.2303204082196581  0.2314047010391151  0.3858187113661941
  0.7266918176831482  0.4473897802751282  0.4205554107329187
  0.2206624832168547  0.8298204617248672  0.4845521946670791
  0.7170338925803428  0.0458055409608874  0.5192888940338032
  0.2235376768366471  0.4455262014583089  0.5854604404026428
  0.7228867677196195  0.6513406825361373  0.6254076929044750
  0.9057576214962209  0.5907971620416370  0.3130764203600886
  0.5329226565299007  0.7513430651212426  0.2695297078329539
  0.0492269142022637  0.8794570642160411  0.2883870681044061
  0.4126122027050638  0.7181490387936624  0.3363516332516155
  0.3823547586569455  0.4028483137562474  0.2924194431562051
  0.0828956394068067  0.5695347126585274  0.2371040607047493
  0.5900411780520030  0.0629393536983876  0.3090431350641918
  0.9639204540902452  0.2838904363244821  0.2696341705842241
  0.9114359654010896  0.1886295029558027  0.4146919998626539
  0.5478149227778653  0.3596142091859442  0.3703550097764588
  0.0446108053967072  0.4901603277953316  0.3917217040597256
  0.4082352431791506  0.3167336059100808  0.4353424535363223
  0.3817042740897663  0.0098540245770259  0.3910236837051948
  0.0714167769800280  0.2128755698046569  0.3409030315051839
  0.5752573768445404  0.6680967847347474  0.4143753657316496
  0.8794990857844387  0.8659997456452232  0.3645105619921456
  0.9027434955032954  0.7870499142046704  0.5133859013402794
  0.5391190577208523  0.9604766360899217  0.4697651518636755
  0.0359183353989111  0.0885807390441925  0.4904156055373439
  0.3995393780221356  0.9175960329140531  0.5347525956235456
  0.3720969239554603  0.6091134572652479  0.4907322396683553
  0.0727891771599201  0.8152200217938946  0.4388224464701282
  0.5656500267102342  0.2673562174229766  0.5140839216948098
  0.8745651236400807  0.4619902202061082  0.4662851589298695
  0.8981273865977299  0.3977531777839621  0.6167205372955987
  0.5347420980949371  0.5590612032063400  0.5687559721483826
  0.0415966793037799  0.6864130800583672  0.5920311850399094
  0.4144316442700997  0.5258671768787598  0.6355778975670436
  0.3573131228480000  0.2142708883016147  0.5960644703358062
  0.0678552150155619  0.4112104963547720  0.5405970434078521
  0.5649995422430499  0.8743619282437546  0.6126881622437929
  0.8759375238199726  0.0643346722953402  0.5642045738948137
 -0.0165661531902497 -0.0066801943244796  0.6354734348157812
  0.8644586613931937  0.7076755293414750  0.6680035446952555
 
  0.00000000E+00  0.00000000E+00  0.00000000E+00
  0.00000000E+00  0.00000000E+00  0.00000000E+00
  0.00000000E+00  0.00000000E+00  0.00000000E+00
  0.00000000E+00  0.00000000E+00  0.00000000E+00
  0.00000000E+00  0.00000000E+00  0.00000000E+00
  0.00000000E+00  0.00000000E+00  0.00000000E+00
  0.00000000E+00  0.00000000E+00  0.00000000E+00
  0.00000000E+00  0.00000000E+00  0.00000000E+00
  0.00000000E+00  0.00000000E+00  0.00000000E+00
  0.00000000E+00  0.00000000E+00  0.00000000E+00
  0.00000000E+00  0.00000000E+00  0.00000000E+00
  0.00000000E+00  0.00000000E+00  0.00000000E+00
  0.00000000E+00  0.00000000E+00  0.00000000E+00
  0.00000000E+00  0.00000000E+00  0.00000000E+00
  0.00000000E+00  0.00000000E+00  0.00000000E+00
  0.00000000E+00  0.00000000E+00  0.00000000E+00
  0.00000000E+00  0.00000000E+00  0.00000000E+00
  0.00000000E+00  0.00000000E+00  0.00000000E+00
  0.00000000E+00  0.00000000E+00  0.00000000E+00
  0.00000000E+00  0.00000000E+00  0.00000000E+00
  0.00000000E+00  0.00000000E+00  0.00000000E+00
  0.00000000E+00  0.00000000E+00  0.00000000E+00
  0.00000000E+00  0.00000000E+00  0.00000000E+00
  0.00000000E+00  0.00000000E+00  0.00000000E+00
  0.00000000E+00  0.00000000E+00  0.00000000E+00
  0.00000000E+00  0.00000000E+00  0.00000000E+00
  0.00000000E+00  0.00000000E+00  0.00000000E+00
  0.00000000E+00  0.00000000E+00  0.00000000E+00
  0.00000000E+00  0.00000000E+00  0.00000000E+00
  0.00000000E+00  0.00000000E+00  0.00000000E+00
  0.00000000E+00  0.00000000E+00  0.00000000E+00
  0.00000000E+00  0.00000000E+00  0.00000000E+00
  0.00000000E+00  0.00000000E+00  0.00000000E+00
  0.00000000E+00  0.00000000E+00  0.00000000E+00
  0.00000000E+00  0.00000000E+00  0.00000000E+00
  0.00000000E+00  0.00000000E+00  0.00000000E+00
  0.00000000E+00  0.00000000E+00  0.00000000E+00
  0.00000000E+00  0.00000000E+00  0.00000000E+00
  0.00000000E+00  0.00000000E+00  0.00000000E+00
  0.00000000E+00  0.00000000E+00  0.00000000E+00
  0.00000000E+00  0.00000000E+00  0.00000000E+00
  0.00000000E+00  0.00000000E+00  0.00000000E+00
  0.00000000E+00  0.00000000E+00  0.00000000E+00
  0.00000000E+00  0.00000000E+00  0.00000000E+00
  0.00000000E+00  0.00000000E+00  0.00000000E+00
  0.00000000E+00  0.00000000E+00  0.00000000E+00
  0.00000000E+00  0.00000000E+00  0.00000000E+00
  0.00000000E+00  0.00000000E+00  0.00000000E+00
  0.00000000E+00  0.00000000E+00  0.00000000E+00
  0.00000000E+00  0.00000000E+00  0.00000000E+00
