# Compound: Zn10W10O36. Old comment: O36
   1.00000000000000     
     4.9265814974000000    0.0000000000000000    0.0000000000000000
     0.0477443875000000    7.3810857030000001    0.0000000000000000
     0.0000000000000000    0.0000000000000000   36.1569788361000022
   Zn   W    O 
    10    10    36
Direct
  0.2722859835498520  0.1015085086516955  0.2948390016254208
  0.7177678220622633  0.2974009715783494  0.3198419087918229
  0.2227343170315756  0.7015018522379262  0.3902025631656724
  0.7251841904492570  0.9050498013486820  0.4212185485503325
  0.2211015350994442  0.2966780893780769  0.4876987584350256
  0.7201391685005576  0.5064416448219261  0.5225164521649684
  0.2160565131507453  0.8980699328513208  0.5889966620496621
  0.7185063864684248  0.1016178820620708  0.6200126474343294
  0.2234728814377367  0.5057187627216474  0.6903733018081789
  0.6689547200501428  0.7016112256483085  0.7153762089745814
  0.2467747408485055  0.6128720254226294  0.3017178986473529
  0.7991349428344181  0.7915056041882643  0.3185969474136818
  0.2282711000374735  0.1942995732215296  0.3877313236217511
  0.7260409630249240  0.4083294221492860  0.4227390486671446
  0.2225104783517791  0.7942187747574454  0.4875268430048686
  0.7187302252482163  0.0089009595425522  0.5226883675951252
  0.2151997405750706  0.3947903120507167  0.5874761619328572
  0.7129696034625269  0.6088201610784748  0.6224838869782445
  0.1421057607655841  0.0116141300117391  0.6916182631863196
  0.6944659627514965  0.1902477087773663  0.7084973119526489
  0.8606616780991925  0.5381193129801372  0.2992885788396382
  0.1048911723310131  0.8632178885285462  0.2864535545707428
  0.3552621700232708  0.3666747931764483  0.2909917030167974
  0.6483646697570729  0.0299601583430112  0.3061653733833578
  0.9089046511537651  0.1498422658447668  0.4164862379470881
  0.5473359356893648  0.3219412405159314  0.3721594956074173
  0.0417988574883645  0.4530342434443099  0.3934677699249178
  0.4418488533907382  0.6715280470321764  0.3419375850270570
  0.3792568932534273  0.9723242744613149  0.3927892012959285
  0.0761507544547760  0.1817998826847013  0.3421164399881561
  0.5733698253626380  0.6296370582610197  0.4176791662282247
  0.8828819194610752  0.8196523446999817  0.3673857919200088
  0.9027477689184555  0.7508184328636371  0.5161703651537837
  0.5394551610470091  0.9247312331409218  0.4726165124014292
  0.0384929346815462  0.0523013013363581  0.4940448454462177
  0.4063917579672955  0.2784002964598200  0.4372347875132658
  0.3736098650457262  0.5725298339332724  0.4934885254099842
  0.0705538546112167  0.7802576878367067  0.4420035829102548
  0.5676308384542741  0.2305899003667256  0.5167266851900175
  0.8762018681813686  0.4226818297248236  0.4682327122869253
  0.8994418461116377  0.3500854907556928  0.6167474406750836
  0.5348489456327060  0.5247194377401828  0.5729804230867362
  0.0323360523462350  0.6532774684552300  0.5937289726529070
  0.4017855425529935  0.8783885011590757  0.5375986981985728
  0.3678708782373639  0.1734826760389775  0.5925360443717779
  0.0650388353186310  0.3804379044751791  0.5419824983130770
  0.5619838103465747  0.8307954597386878  0.6174260093040737
  0.8706868489887780  0.0228620464632974  0.5682116276897398
  0.8363495312689885  0.9399018456714565  0.7237616560292587
  0.4993918502092636  0.1315916871678266  0.6682776255729378
  0.0805790255008098  0.2650004213198677  0.7109266317603642
  0.3939047678106353  0.4811784937840660  0.6380557149925856
  0.2928760338429290  0.7731595758569908  0.7040498372166373
  0.0583587841389262  0.9834673895000139  0.6428294186799929
  0.5859785335767312  0.4364449410235473  0.7192235075831972
  0.8650899491452188  0.6213198516152958  0.6680987706118462
 
  0.00000000E+00  0.00000000E+00  0.00000000E+00
  0.00000000E+00  0.00000000E+00  0.00000000E+00
  0.00000000E+00  0.00000000E+00  0.00000000E+00
  0.00000000E+00  0.00000000E+00  0.00000000E+00
  0.00000000E+00  0.00000000E+00  0.00000000E+00
  0.00000000E+00  0.00000000E+00  0.00000000E+00
  0.00000000E+00  0.00000000E+00  0.00000000E+00
  0.00000000E+00  0.00000000E+00  0.00000000E+00
  0.00000000E+00  0.00000000E+00  0.00000000E+00
  0.00000000E+00  0.00000000E+00  0.00000000E+00
  0.00000000E+00  0.00000000E+00  0.00000000E+00
  0.00000000E+00  0.00000000E+00  0.00000000E+00
  0.00000000E+00  0.00000000E+00  0.00000000E+00
  0.00000000E+00  0.00000000E+00  0.00000000E+00
  0.00000000E+00  0.00000000E+00  0.00000000E+00
  0.00000000E+00  0.00000000E+00  0.00000000E+00
  0.00000000E+00  0.00000000E+00  0.00000000E+00
  0.00000000E+00  0.00000000E+00  0.00000000E+00
  0.00000000E+00  0.00000000E+00  0.00000000E+00
  0.00000000E+00  0.00000000E+00  0.00000000E+00
  0.00000000E+00  0.00000000E+00  0.00000000E+00
  0.00000000E+00  0.00000000E+00  0.00000000E+00
  0.00000000E+00  0.00000000E+00  0.00000000E+00
  0.00000000E+00  0.00000000E+00  0.00000000E+00
  0.00000000E+00  0.00000000E+00  0.00000000E+00
  0.00000000E+00  0.00000000E+00  0.00000000E+00
  0.00000000E+00  0.00000000E+00  0.00000000E+00
  0.00000000E+00  0.00000000E+00  0.00000000E+00
  0.00000000E+00  0.00000000E+00  0.00000000E+00
  0.00000000E+00  0.00000000E+00  0.00000000E+00
  0.00000000E+00  0.00000000E+00  0.00000000E+00
  0.00000000E+00  0.00000000E+00  0.00000000E+00
  0.00000000E+00  0.00000000E+00  0.00000000E+00
  0.00000000E+00  0.00000000E+00  0.00000000E+00
  0.00000000E+00  0.00000000E+00  0.00000000E+00
  0.00000000E+00  0.00000000E+00  0.00000000E+00
  0.00000000E+00  0.00000000E+00  0.00000000E+00
  0.00000000E+00  0.00000000E+00  0.00000000E+00
  0.00000000E+00  0.00000000E+00  0.00000000E+00
  0.00000000E+00  0.00000000E+00  0.00000000E+00
  0.00000000E+00  0.00000000E+00  0.00000000E+00
  0.00000000E+00  0.00000000E+00  0.00000000E+00
  0.00000000E+00  0.00000000E+00  0.00000000E+00
  0.00000000E+00  0.00000000E+00  0.00000000E+00
  0.00000000E+00  0.00000000E+00  0.00000000E+00
  0.00000000E+00  0.00000000E+00  0.00000000E+00
  0.00000000E+00  0.00000000E+00  0.00000000E+00
  0.00000000E+00  0.00000000E+00  0.00000000E+00
  0.00000000E+00  0.00000000E+00  0.00000000E+00
  0.00000000E+00  0.00000000E+00  0.00000000E+00
  0.00000000E+00  0.00000000E+00  0.00000000E+00
  0.00000000E+00  0.00000000E+00  0.00000000E+00
  0.00000000E+00  0.00000000E+00  0.00000000E+00
  0.00000000E+00  0.00000000E+00  0.00000000E+00
  0.00000000E+00  0.00000000E+00  0.00000000E+00
  0.00000000E+00  0.00000000E+00  0.00000000E+00
