# Compound: Zn10W10O40. Old comment: O40
   1.00000000000000     
     4.9265814974000000    0.0000000000000000    0.0000000000000000
     0.0477443875000000    7.3810857030000001    0.0000000000000000
     0.0000000000000000    0.0000000000000000   36.1569788361000022
   Zn   W    O 
    10    10    40
Direct
  0.2115156283991732  0.2048819555009193  0.2820876833907451
  0.7748817107178541  0.4596102630411446  0.3265117398521856
  0.2482242085032004  0.7903647486297528  0.3731736872154590
  0.7304374288970472  0.0049852682548588  0.4171370950804991
  0.2243936189559103  0.3948916745753552  0.4828555929713541
  0.7174412536440872  0.6069706476246490  0.5171444070286459
  0.2113974437029507 -0.0031229460548542  0.5828629049195005
  0.6936106640967975  0.2114975736702456  0.6268263127845403
  0.1669531618821511  0.5422520591588540  0.6734882601478146
  0.7303192442008317  0.7969803667990800  0.7179123166092551
  0.2763174420060301  0.5961251900713238  0.2775081854252316
  0.7488997801812110  0.9081029870402428  0.3146182981346521
  0.2338357960477840  0.2896199005059713  0.3836235379577781
  0.7288431981817909  0.5172880405289620  0.4180169164924797
  0.2212117538960242  0.8950846430617608  0.4812515344339708
  0.7206231187039807  0.1067776792382387  0.5187484655660293
  0.2129916744182142  0.4845742816710349  0.5819830835075197
  0.7079990765522144  0.7122424216940323  0.6163764620422219
  0.1929350924187864  0.0937593351597628  0.6853817018653477
  0.6655174305939675  0.4057371321286726  0.7224918145747687
  0.9595686973344620  0.6725603854816715  0.3056007906146390
  0.3994377891725010  0.7566180035590869  0.2470364370043035
 -0.0278702204182045 -0.0017071013397065  0.2801635496494244
  0.4614224197741773  0.7287315204471485  0.3250067729088952
  0.5394524819201559  0.4237615004932206  0.2868318140726073
  0.0876058262237344  0.2974744872192654  0.3373608008780704
  0.4947879895462289  0.0788201999327798  0.3098342590978835
  0.0929321983820495  0.4201002202334879  0.2533664101522718
  0.9166833651639282  0.2535427980718599  0.4120595105592220
  0.5525238643189764  0.4211429799167887  0.3700397771134493
  0.0420837643434788  0.5590397094755531  0.3880479132795916
  0.4086006912538385  0.3821582456815997  0.4324617370637679
  0.3863026818968046  0.0681884720256211  0.3870812408590166
  0.0694594003521920  0.8815877647197896  0.4362338568669371
  0.5716001469212137  0.7348865005196730  0.4096932891535741
  0.9026278864102738  0.9383087460245764  0.3597560279754800
  0.9031079143888595  0.8502312739533541  0.5108404947462718
  0.5381389749226420  0.0257761688395000  0.4673724081706267
  0.0387269582111451  0.1516310482466435  0.4891595052537285
  0.4036958976773561  0.9760861533604970  0.5326275918293737
  0.3727354441113085  0.6725902033062365  0.4875828073346083
  0.0655818906395528  0.4746363380240482  0.5364423070041451
  0.5690994284886887  0.3292721188937610  0.5124171926653900
  0.8762529819604523  0.5272259841759492  0.4635576929958558
  0.8997511082565189  0.4428226127244518  0.6119520867204089
  0.5332341813461590  0.6197040765184060  0.5675382629362320
  0.0251515074360692  0.7483195242281384  0.5879404894407783
  0.3893110082810282  0.5807193423832103  0.6299602228865505
  0.3702347256787835  0.2669758217803264  0.5903067108464248
  0.0392069861897233  0.0635535761754207  0.6402439720245192
  0.5555321907031936  0.9336738501743840  0.6129187591409839
  0.8723754722478121  0.1202745575802091  0.5637661431330633
  0.9697050930182024  0.0035694235397035  0.7198364503505755
  0.4804124528258206  0.2731308017528497  0.6749932270911045
 -0.0177338247344638  0.3293019367183255  0.6943992093853611
  0.5423970834274970  0.2452443186409103  0.7529635629956963
  0.4470468830537693  0.9230421222672235  0.6901657409021168
 -0.1510973257820520  0.5817621019665166  0.7466335898477277
  0.4023823906798414  0.5781008217067762  0.7131681859273926
  0.8542290463762710  0.7043878350807323  0.6626391991219308
 
  0.00000000E+00  0.00000000E+00  0.00000000E+00
  0.00000000E+00  0.00000000E+00  0.00000000E+00
  0.00000000E+00  0.00000000E+00  0.00000000E+00
  0.00000000E+00  0.00000000E+00  0.00000000E+00
  0.00000000E+00  0.00000000E+00  0.00000000E+00
  0.00000000E+00  0.00000000E+00  0.00000000E+00
  0.00000000E+00  0.00000000E+00  0.00000000E+00
  0.00000000E+00  0.00000000E+00  0.00000000E+00
  0.00000000E+00  0.00000000E+00  0.00000000E+00
  0.00000000E+00  0.00000000E+00  0.00000000E+00
  0.00000000E+00  0.00000000E+00  0.00000000E+00
  0.00000000E+00  0.00000000E+00  0.00000000E+00
  0.00000000E+00  0.00000000E+00  0.00000000E+00
  0.00000000E+00  0.00000000E+00  0.00000000E+00
  0.00000000E+00  0.00000000E+00  0.00000000E+00
  0.00000000E+00  0.00000000E+00  0.00000000E+00
  0.00000000E+00  0.00000000E+00  0.00000000E+00
  0.00000000E+00  0.00000000E+00  0.00000000E+00
  0.00000000E+00  0.00000000E+00  0.00000000E+00
  0.00000000E+00  0.00000000E+00  0.00000000E+00
  0.00000000E+00  0.00000000E+00  0.00000000E+00
  0.00000000E+00  0.00000000E+00  0.00000000E+00
  0.00000000E+00  0.00000000E+00  0.00000000E+00
  0.00000000E+00  0.00000000E+00  0.00000000E+00
  0.00000000E+00  0.00000000E+00  0.00000000E+00
  0.00000000E+00  0.00000000E+00  0.00000000E+00
  0.00000000E+00  0.00000000E+00  0.00000000E+00
  0.00000000E+00  0.00000000E+00  0.00000000E+00
  0.00000000E+00  0.00000000E+00  0.00000000E+00
  0.00000000E+00  0.00000000E+00  0.00000000E+00
  0.00000000E+00  0.00000000E+00  0.00000000E+00
  0.00000000E+00  0.00000000E+00  0.00000000E+00
  0.00000000E+00  0.00000000E+00  0.00000000E+00
  0.00000000E+00  0.00000000E+00  0.00000000E+00
  0.00000000E+00  0.00000000E+00  0.00000000E+00
  0.00000000E+00  0.00000000E+00  0.00000000E+00
  0.00000000E+00  0.00000000E+00  0.00000000E+00
  0.00000000E+00  0.00000000E+00  0.00000000E+00
  0.00000000E+00  0.00000000E+00  0.00000000E+00
  0.00000000E+00  0.00000000E+00  0.00000000E+00
  0.00000000E+00  0.00000000E+00  0.00000000E+00
  0.00000000E+00  0.00000000E+00  0.00000000E+00
  0.00000000E+00  0.00000000E+00  0.00000000E+00
  0.00000000E+00  0.00000000E+00  0.00000000E+00
  0.00000000E+00  0.00000000E+00  0.00000000E+00
  0.00000000E+00  0.00000000E+00  0.00000000E+00
  0.00000000E+00  0.00000000E+00  0.00000000E+00
  0.00000000E+00  0.00000000E+00  0.00000000E+00
  0.00000000E+00  0.00000000E+00  0.00000000E+00
  0.00000000E+00  0.00000000E+00  0.00000000E+00
  0.00000000E+00  0.00000000E+00  0.00000000E+00
  0.00000000E+00  0.00000000E+00  0.00000000E+00
  0.00000000E+00  0.00000000E+00  0.00000000E+00
  0.00000000E+00  0.00000000E+00  0.00000000E+00
  0.00000000E+00  0.00000000E+00  0.00000000E+00
  0.00000000E+00  0.00000000E+00  0.00000000E+00
  0.00000000E+00  0.00000000E+00  0.00000000E+00
  0.00000000E+00  0.00000000E+00  0.00000000E+00
  0.00000000E+00  0.00000000E+00  0.00000000E+00
  0.00000000E+00  0.00000000E+00  0.00000000E+00
