# Compound: Zn10W10O40. Old comment: O40
   1.00000000000000     
     4.9265814974000000    0.0000000000000000    0.0000000000000000
     0.0477443875000000    7.3810857030000001    0.0000000000000000
     0.0000000000000000    0.0000000000000000   36.1569788361000022
   Zn   W    O 
    10    10    40
Direct
  0.2169131650671303 -0.0004305716672366  0.3330360331474007
  0.7997567662295315  0.6424368584457570  0.2747773166271212
  0.2251132276201676  0.5964129816082644  0.4324964949610735
  0.7288824137570428  0.2059372697117115  0.3665430275369300
  0.2183889064519988  0.1943112812813303  0.5322524516161977
  0.7234459662480007  0.8075510409186741  0.4677475483838024
  0.2129524588429550  0.7959250524882860  0.6334569724630698
  0.7167216449798371  0.4054493405917327  0.5675035050389263
  0.1420781063704668  0.3594254638542420  0.7252226833728791
  0.7249217075328671  0.0022928939672356  0.6669639668525995
  0.2292763500671305  0.4920272334578082  0.3315149239634583
  0.7019006393615848  0.0669964780495180  0.2708273470042024
  0.2266156590922222  0.0937041909937326  0.4319965734133777
  0.7259190499941949  0.7092515622469610  0.3682123554195764
  0.2178336272234318  0.6927552801278308  0.5322004464319481
  0.7240012453765663  0.3091070421721681  0.4677995535680515
  0.2159158226058031  0.2926107599530440  0.6317876445804239
  0.7152192135077760  0.9081581313062662  0.5680034265866218
  0.2399342332384206  0.9348658441504791  0.7291726529957974
  0.7125585225328738  0.5098350887421899  0.6684850760365418
  0.8308896963754672  0.8592878946644835  0.2490696082475324
  0.5463242505933321  0.6264296821578570  0.3166712248137779
  0.0352428150596297  0.7528007577124606  0.3370346103797423
  0.3581344318629837  0.0164972211807418  0.2823164421918579
  0.3830637280537704  0.2740489531908887  0.3382236542779885
  0.0865401876019238  0.4796002894166751  0.2861025653578726
  0.7061285789747586  0.2550838308651187  0.2418933682586952
  0.8718318400200964  0.1220042413184210  0.3144855773389829
  0.9112787206153341  0.4523410159829106  0.3609078882862565
  0.5433796431034142  0.2242729614606064  0.4174260685634529
  0.0424454199090833  0.3520333279806023  0.4387960725676252
  0.4072997631267043  0.5800796957945434  0.3816791851095153
  0.3777688017628582  0.8722232469126625  0.4383283413663371
  0.0737910885336224  0.0781950601728589  0.3867731101474219
  0.5687177087645662  0.9279798098204569  0.3620841020820674
  0.8802284893410085  0.7249194210190815  0.4133073171797439
  0.9080091197517716  0.0512805147919085  0.4611889685242055
  0.5352271993637143  0.8237003987332702  0.5177422126987290
  0.0338257528482261  0.9505818074080892  0.5388110314757942
  0.4066076732362903  0.1781619234667348  0.4822577873012714
  0.3703446348368068  0.4716407196599947  0.5384579375177441
  0.0689462374375417  0.6779829673164803  0.4866605818740098
  0.5714902377631901  0.5302216026400052  0.4615420624822561
  0.8728886351624556  0.3238793548835252  0.5133394181259908
  0.8993894526909211  0.6498289942193942  0.5612039274323747
  0.5345351094733000  0.4217826264054614  0.6183208148904841
  0.0305561519846634  0.5495213063170957  0.6390921117137428
  0.3984552294965830  0.7775893608393928  0.5825739314365469
  0.3731171638354386  0.0738825123795470  0.6379158979179325
  0.0616063832589966  0.2769429011809167  0.5866926828202562
  0.5640660708371388  0.1296390752873417  0.5616716586336630
  0.8680437840663757  0.9236672621271405  0.6132268898525768
  0.9065920575403753  0.2490615644875437  0.6629653896202576
  0.5837004407370143 -0.0146348989807443  0.7176835578081420
  0.1109451762245376  0.1425744275355146  0.7509303917524677
  0.3955106220066662  0.3754326400421482  0.6833287751862224
  0.2357062936252466  0.7467784913348787  0.7581066317413051
  0.0700030326799037  0.8798580808815765  0.6855144226610164
  0.5587711445462340  0.7278133690091089  0.6617763457220115
  0.8552946849980743  0.5222620327833226  0.7138974346421276
 
  0.00000000E+00  0.00000000E+00  0.00000000E+00
  0.00000000E+00  0.00000000E+00  0.00000000E+00
  0.00000000E+00  0.00000000E+00  0.00000000E+00
  0.00000000E+00  0.00000000E+00  0.00000000E+00
  0.00000000E+00  0.00000000E+00  0.00000000E+00
  0.00000000E+00  0.00000000E+00  0.00000000E+00
  0.00000000E+00  0.00000000E+00  0.00000000E+00
  0.00000000E+00  0.00000000E+00  0.00000000E+00
  0.00000000E+00  0.00000000E+00  0.00000000E+00
  0.00000000E+00  0.00000000E+00  0.00000000E+00
  0.00000000E+00  0.00000000E+00  0.00000000E+00
  0.00000000E+00  0.00000000E+00  0.00000000E+00
  0.00000000E+00  0.00000000E+00  0.00000000E+00
  0.00000000E+00  0.00000000E+00  0.00000000E+00
  0.00000000E+00  0.00000000E+00  0.00000000E+00
  0.00000000E+00  0.00000000E+00  0.00000000E+00
  0.00000000E+00  0.00000000E+00  0.00000000E+00
  0.00000000E+00  0.00000000E+00  0.00000000E+00
  0.00000000E+00  0.00000000E+00  0.00000000E+00
  0.00000000E+00  0.00000000E+00  0.00000000E+00
  0.00000000E+00  0.00000000E+00  0.00000000E+00
  0.00000000E+00  0.00000000E+00  0.00000000E+00
  0.00000000E+00  0.00000000E+00  0.00000000E+00
  0.00000000E+00  0.00000000E+00  0.00000000E+00
  0.00000000E+00  0.00000000E+00  0.00000000E+00
  0.00000000E+00  0.00000000E+00  0.00000000E+00
  0.00000000E+00  0.00000000E+00  0.00000000E+00
  0.00000000E+00  0.00000000E+00  0.00000000E+00
  0.00000000E+00  0.00000000E+00  0.00000000E+00
  0.00000000E+00  0.00000000E+00  0.00000000E+00
  0.00000000E+00  0.00000000E+00  0.00000000E+00
  0.00000000E+00  0.00000000E+00  0.00000000E+00
  0.00000000E+00  0.00000000E+00  0.00000000E+00
  0.00000000E+00  0.00000000E+00  0.00000000E+00
  0.00000000E+00  0.00000000E+00  0.00000000E+00
  0.00000000E+00  0.00000000E+00  0.00000000E+00
  0.00000000E+00  0.00000000E+00  0.00000000E+00
  0.00000000E+00  0.00000000E+00  0.00000000E+00
  0.00000000E+00  0.00000000E+00  0.00000000E+00
  0.00000000E+00  0.00000000E+00  0.00000000E+00
  0.00000000E+00  0.00000000E+00  0.00000000E+00
  0.00000000E+00  0.00000000E+00  0.00000000E+00
  0.00000000E+00  0.00000000E+00  0.00000000E+00
  0.00000000E+00  0.00000000E+00  0.00000000E+00
  0.00000000E+00  0.00000000E+00  0.00000000E+00
  0.00000000E+00  0.00000000E+00  0.00000000E+00
  0.00000000E+00  0.00000000E+00  0.00000000E+00
  0.00000000E+00  0.00000000E+00  0.00000000E+00
  0.00000000E+00  0.00000000E+00  0.00000000E+00
  0.00000000E+00  0.00000000E+00  0.00000000E+00
  0.00000000E+00  0.00000000E+00  0.00000000E+00
  0.00000000E+00  0.00000000E+00  0.00000000E+00
  0.00000000E+00  0.00000000E+00  0.00000000E+00
  0.00000000E+00  0.00000000E+00  0.00000000E+00
  0.00000000E+00  0.00000000E+00  0.00000000E+00
  0.00000000E+00  0.00000000E+00  0.00000000E+00
  0.00000000E+00  0.00000000E+00  0.00000000E+00
  0.00000000E+00  0.00000000E+00  0.00000000E+00
  0.00000000E+00  0.00000000E+00  0.00000000E+00
  0.00000000E+00  0.00000000E+00  0.00000000E+00
