# Compound: Zn10W10O36. Old comment: O36
   1.00000000000000     
     4.9265814974000000    0.0000000000000000    0.0000000000000000
     0.0477443875000000    7.3810857030000001    0.0000000000000000
     0.0000000000000000    0.0000000000000000   36.1569788361000022
   Zn   W    O 
    10    10    36
Direct
  0.2275742249096308  0.0580399542450590  0.3281817062587564
  0.8377825545715045  0.7492879683933007  0.2710012166215359
  0.2255544467590826  0.6535294584364336  0.4273508235382240
  0.7274029560287768  0.2675665578008279  0.3616589708964805
  0.2195952146863996  0.2556273642719474  0.5272259227824719
  0.7228338270136031  0.8656878819280579  0.4625588666175265
  0.2150260855712237  0.8537486883991701  0.6281258185035177
  0.7168745948409179  0.4677857877635641  0.5624339658617740
  0.1046464870284961  0.3720272778066970  0.7187835727784693
  0.7148548166903699  0.0632752920549410  0.6616030831412490
  0.2353253650484557  0.5507293289017672  0.3253685893980412
  0.7175309245245627  0.0791498149311291  0.2677425131969052
  0.2248246667986620  0.1521656070232168  0.4266289787642519
  0.7282612474958213  0.7632416636768363  0.3632591079486487
  0.2194672871685335  0.7537659953215262  0.5270443565563843
  0.7229617545314621  0.3675492508784716  0.4627404328436140
  0.2141677941041797  0.3580735825231688  0.6265256814513561
  0.7176043748013383  0.9691496391767885  0.5631558106357466
  0.2248981171754387  0.0421654312688690  0.7220422762031004
  0.7071036765515454  0.5705859172982310  0.6644162000019568
  0.9166334975046585  0.5095046654061947  0.3555739126764614
  0.5523848694138844  0.6790099497802486  0.3125912037235208
  0.0469030197573029  0.8106402961709548  0.3328095131787277
  0.3647709921466796  0.0649399999628657  0.2719538032690629
  0.3830199351512624  0.3272448195473635  0.3313825950005519
  0.0824351127046437  0.5461010374237928  0.2804801244096287
  0.5763595778767812  0.9849147664569067  0.3562064596173918
  0.8798554050769777  0.1822327917471797  0.3063498347728177
  0.9068500521880333  0.1096041913784065  0.4558688117922534
  0.5416157655953587  0.2830654214018370  0.4121903809303998
  0.0409741899764963  0.4101285097811384  0.4336289938011398
  0.4131393536064882  0.6338280783410186  0.3772661943198296
  0.3773703060567073  0.9311308452287987  0.4328622253490624
  0.0726168392724956  0.1380554252329103  0.3811598195410942
  0.5712765398107760  0.5890848170975039  0.4565983179338135
  0.8811331749706951  0.7823727184195927  0.4084332052036257
  0.9014548517235057  0.7111867364188595  0.5561557955988581
  0.5370501747927747  0.8847898018307762  0.5128011435257053
  0.0355789894119601  0.0117110548215917  0.5339159776077437
  0.4053788669072280  0.2365254443692224  0.4769836458742928
  0.3711525017892170  0.5322304292024961  0.5331864714661914
  0.0701218509741294  0.7382217649017351  0.4815928935021581
  0.5650587355432928  0.1901844009712067  0.5569225640509428
  0.8723071906258711  0.3830934812982701  0.5081918958978395
  0.8955260218426976  0.3106749500290505  0.6569752762212774
  0.5292896879935118  0.4874871678589799  0.6125185950801691
  0.0257955440953424  0.6118105808938054  0.6342108767235362
  0.4008132760046422  0.8382498248981631  0.5775944084696057
  0.3660694638232215  0.1364004797430991  0.6335783297826060
  0.0612958666293055  0.3389425277804056  0.5813515841963720
  0.5594091065487398  0.7940704266526351  0.6584021943994464
  0.8698122023275047  0.9832598210670895  0.6086249698589038
  0.5776580495533220  0.0563752462371325  0.7178309861309352
  0.3900441721861160  0.4423052964197568  0.6771935856764774
  0.0625736366230249  0.9390824544528192  0.6834349546271876
  0.8599939288953568  0.5752142087762054  0.7093046649903700
 
  0.00000000E+00  0.00000000E+00  0.00000000E+00
  0.00000000E+00  0.00000000E+00  0.00000000E+00
  0.00000000E+00  0.00000000E+00  0.00000000E+00
  0.00000000E+00  0.00000000E+00  0.00000000E+00
  0.00000000E+00  0.00000000E+00  0.00000000E+00
  0.00000000E+00  0.00000000E+00  0.00000000E+00
  0.00000000E+00  0.00000000E+00  0.00000000E+00
  0.00000000E+00  0.00000000E+00  0.00000000E+00
  0.00000000E+00  0.00000000E+00  0.00000000E+00
  0.00000000E+00  0.00000000E+00  0.00000000E+00
  0.00000000E+00  0.00000000E+00  0.00000000E+00
  0.00000000E+00  0.00000000E+00  0.00000000E+00
  0.00000000E+00  0.00000000E+00  0.00000000E+00
  0.00000000E+00  0.00000000E+00  0.00000000E+00
  0.00000000E+00  0.00000000E+00  0.00000000E+00
  0.00000000E+00  0.00000000E+00  0.00000000E+00
  0.00000000E+00  0.00000000E+00  0.00000000E+00
  0.00000000E+00  0.00000000E+00  0.00000000E+00
  0.00000000E+00  0.00000000E+00  0.00000000E+00
  0.00000000E+00  0.00000000E+00  0.00000000E+00
  0.00000000E+00  0.00000000E+00  0.00000000E+00
  0.00000000E+00  0.00000000E+00  0.00000000E+00
  0.00000000E+00  0.00000000E+00  0.00000000E+00
  0.00000000E+00  0.00000000E+00  0.00000000E+00
  0.00000000E+00  0.00000000E+00  0.00000000E+00
  0.00000000E+00  0.00000000E+00  0.00000000E+00
  0.00000000E+00  0.00000000E+00  0.00000000E+00
  0.00000000E+00  0.00000000E+00  0.00000000E+00
  0.00000000E+00  0.00000000E+00  0.00000000E+00
  0.00000000E+00  0.00000000E+00  0.00000000E+00
  0.00000000E+00  0.00000000E+00  0.00000000E+00
  0.00000000E+00  0.00000000E+00  0.00000000E+00
  0.00000000E+00  0.00000000E+00  0.00000000E+00
  0.00000000E+00  0.00000000E+00  0.00000000E+00
  0.00000000E+00  0.00000000E+00  0.00000000E+00
  0.00000000E+00  0.00000000E+00  0.00000000E+00
  0.00000000E+00  0.00000000E+00  0.00000000E+00
  0.00000000E+00  0.00000000E+00  0.00000000E+00
  0.00000000E+00  0.00000000E+00  0.00000000E+00
  0.00000000E+00  0.00000000E+00  0.00000000E+00
  0.00000000E+00  0.00000000E+00  0.00000000E+00
  0.00000000E+00  0.00000000E+00  0.00000000E+00
  0.00000000E+00  0.00000000E+00  0.00000000E+00
  0.00000000E+00  0.00000000E+00  0.00000000E+00
  0.00000000E+00  0.00000000E+00  0.00000000E+00
  0.00000000E+00  0.00000000E+00  0.00000000E+00
  0.00000000E+00  0.00000000E+00  0.00000000E+00
  0.00000000E+00  0.00000000E+00  0.00000000E+00
  0.00000000E+00  0.00000000E+00  0.00000000E+00
  0.00000000E+00  0.00000000E+00  0.00000000E+00
  0.00000000E+00  0.00000000E+00  0.00000000E+00
  0.00000000E+00  0.00000000E+00  0.00000000E+00
  0.00000000E+00  0.00000000E+00  0.00000000E+00
  0.00000000E+00  0.00000000E+00  0.00000000E+00
  0.00000000E+00  0.00000000E+00  0.00000000E+00
  0.00000000E+00  0.00000000E+00  0.00000000E+00
