# Compound: Zn10W10O38. Old comment: O38
   1.00000000000000     
     4.9265814974000000    0.0000000000000000    0.0000000000000000
     0.0477443875000000    7.3810857030000001    0.0000000000000000
     0.0000000000000000    0.0000000000000000   36.1569788361000022
   Zn   W    O 
    10    10    38
Direct
  0.2740678841833264  0.1613596170528405  0.2889714022914552
  0.7456610562060023  0.3271492779908781  0.3223815390254761
  0.2115112305753735  0.7403334613946049  0.3867958552472492
  0.7286488891860851  0.9395697374753930  0.4178973465872980
  0.2211054397684378  0.3337795914419905  0.4855529682085342
  0.7204323483315700  0.5436168827580152  0.5195546371914658
  0.2128888989139139  0.9378267367246117  0.5872102588127009
  0.7300265575246268  0.1370630129053945  0.6183117501527509
  0.1958767318939974  0.5502471962091195  0.6827260663745234
  0.6674699038166710  0.7160368572471595  0.7161362031085504
  0.2357567763139834  0.6614198099607581  0.2947949841336943
  0.7816585338771597  0.8366012075994269  0.3116665652729516
  0.2341701673750017  0.2281347133076342  0.3865320937331476
  0.7274144404197815  0.4486618356511556  0.4204093245047148
  0.2229738291421687  0.8323853889996907  0.4847703608221181
  0.7185639589578325  0.0450110853003095  0.5203372445778796
  0.2141233476802181  0.4287346385488419  0.5846982808952854
  0.7073676207249984  0.6492617608923701  0.6185755116668517
  0.1598792542228402  0.0407952666005781  0.6934410401270540
  0.7057810117860236  0.2159766642392394  0.7103126212663046
  0.8931555836512201  0.5643287709997433  0.3127426889020916
  0.5636632030543993  0.7595550759856927  0.2710383662366064
  0.0959828781114956  0.9181830376029664  0.2830721315892284
  0.4065592306419087  0.7045047115836760  0.3377593374933084
  0.3187908266913022  0.4237356727450173  0.2793487019905466
  0.6356512851872315  0.0893550096407984  0.3057616577284720
  0.9124870451358116  0.1852467687841402  0.4140247448638122
  0.5522793282761709  0.3595009736442984  0.3713256702253837
  0.0454520248620906  0.4888891636039471  0.3917907283833281
  0.4109589271713688  0.3148497532064874  0.4355656070745602
  0.3830621591125520  0.0052808986597019  0.3910560998615333
  0.1066539043736978  0.2150387750207265  0.3399177719004186
  0.5734409963044066  0.6684923669751749  0.4147072942595272
  0.8812935735658971  0.8597061871116796  0.3607070843362005
  0.9032770959231891  0.7881711443026140  0.5135632217470265
  0.5399871617352573  0.9618430023556637  0.4700882282734173
  0.0382606921768109  0.0892253298973830  0.4915443836529737
  0.4015506263647431  0.9155534719443357  0.5350193771265830
  0.3735374829679850  0.6106707769058989  0.4906765991601850
  0.0696790559210388  0.8174164864464259  0.4391778425561594
  0.5680003051320147  0.2667256972940973  0.5144310062398211
  0.8772057860251211  0.4603934410006419  0.4660316351104968
  0.8960857632379099  0.3885073105960576  0.6133168770166790
  0.5305788609286380  0.5625467209935171  0.5695419983254391
  0.0290507429641881  0.6921497055158595  0.5910828605361869
  0.3892584598238292  0.5178955006557013  0.6337819351746150
  0.3680967917955931  0.2089041073248244  0.5904003111404722
  0.0643320020748785  0.4170030331993557  0.5390759702895017
  0.5584756289874483  0.8721155755403033  0.6140515055384655
  0.8718587320789588  0.0599799878535734  0.5659297628438393
  0.8455549099885042  0.9592134365970312  0.7220354738107704
  0.5349785574580906  0.1728917626163217  0.6673482679066907
  0.0483822044487797  0.3130677033002562  0.6923649164979071
  0.3778745850456012  0.1178413982143046  0.7340692391633931
  0.3058865029127682  0.7880414645592061  0.6993459476715274
  0.0602442145341027  0.0176902870883174  0.6444005210637981
  0.6227469614086983  0.4536608014549803  0.7257589034094529
  0.8348838837263020  0.6623576992792723  0.6651898334995805
 
  0.00000000E+00  0.00000000E+00  0.00000000E+00
  0.00000000E+00  0.00000000E+00  0.00000000E+00
  0.00000000E+00  0.00000000E+00  0.00000000E+00
  0.00000000E+00  0.00000000E+00  0.00000000E+00
  0.00000000E+00  0.00000000E+00  0.00000000E+00
  0.00000000E+00  0.00000000E+00  0.00000000E+00
  0.00000000E+00  0.00000000E+00  0.00000000E+00
  0.00000000E+00  0.00000000E+00  0.00000000E+00
  0.00000000E+00  0.00000000E+00  0.00000000E+00
  0.00000000E+00  0.00000000E+00  0.00000000E+00
  0.00000000E+00  0.00000000E+00  0.00000000E+00
  0.00000000E+00  0.00000000E+00  0.00000000E+00
  0.00000000E+00  0.00000000E+00  0.00000000E+00
  0.00000000E+00  0.00000000E+00  0.00000000E+00
  0.00000000E+00  0.00000000E+00  0.00000000E+00
  0.00000000E+00  0.00000000E+00  0.00000000E+00
  0.00000000E+00  0.00000000E+00  0.00000000E+00
  0.00000000E+00  0.00000000E+00  0.00000000E+00
  0.00000000E+00  0.00000000E+00  0.00000000E+00
  0.00000000E+00  0.00000000E+00  0.00000000E+00
  0.00000000E+00  0.00000000E+00  0.00000000E+00
  0.00000000E+00  0.00000000E+00  0.00000000E+00
  0.00000000E+00  0.00000000E+00  0.00000000E+00
  0.00000000E+00  0.00000000E+00  0.00000000E+00
  0.00000000E+00  0.00000000E+00  0.00000000E+00
  0.00000000E+00  0.00000000E+00  0.00000000E+00
  0.00000000E+00  0.00000000E+00  0.00000000E+00
  0.00000000E+00  0.00000000E+00  0.00000000E+00
  0.00000000E+00  0.00000000E+00  0.00000000E+00
  0.00000000E+00  0.00000000E+00  0.00000000E+00
  0.00000000E+00  0.00000000E+00  0.00000000E+00
  0.00000000E+00  0.00000000E+00  0.00000000E+00
  0.00000000E+00  0.00000000E+00  0.00000000E+00
  0.00000000E+00  0.00000000E+00  0.00000000E+00
  0.00000000E+00  0.00000000E+00  0.00000000E+00
  0.00000000E+00  0.00000000E+00  0.00000000E+00
  0.00000000E+00  0.00000000E+00  0.00000000E+00
  0.00000000E+00  0.00000000E+00  0.00000000E+00
  0.00000000E+00  0.00000000E+00  0.00000000E+00
  0.00000000E+00  0.00000000E+00  0.00000000E+00
  0.00000000E+00  0.00000000E+00  0.00000000E+00
  0.00000000E+00  0.00000000E+00  0.00000000E+00
  0.00000000E+00  0.00000000E+00  0.00000000E+00
  0.00000000E+00  0.00000000E+00  0.00000000E+00
  0.00000000E+00  0.00000000E+00  0.00000000E+00
  0.00000000E+00  0.00000000E+00  0.00000000E+00
  0.00000000E+00  0.00000000E+00  0.00000000E+00
  0.00000000E+00  0.00000000E+00  0.00000000E+00
  0.00000000E+00  0.00000000E+00  0.00000000E+00
  0.00000000E+00  0.00000000E+00  0.00000000E+00
  0.00000000E+00  0.00000000E+00  0.00000000E+00
  0.00000000E+00  0.00000000E+00  0.00000000E+00
  0.00000000E+00  0.00000000E+00  0.00000000E+00
  0.00000000E+00  0.00000000E+00  0.00000000E+00
  0.00000000E+00  0.00000000E+00  0.00000000E+00
  0.00000000E+00  0.00000000E+00  0.00000000E+00
  0.00000000E+00  0.00000000E+00  0.00000000E+00
  0.00000000E+00  0.00000000E+00  0.00000000E+00
