# Compound: Zn8W8O36. Old comment: O36W8
   1.00000000000000     
     4.9265814974000000    0.0000000000000000    0.0000000000000000
     0.0477443875000000    7.3810857030000001    0.0000000000000000
     0.0000000000000000    0.0000000000000000   36.1569788361000022
   Zn   W    O 
     8     8    36
Direct
  0.2167429478463010  0.0979623012153601  0.2901011405020358
  0.7111842386817564  0.3111788193587371  0.3217341592357605
  0.2243878472473252  0.6978352141958319  0.3879688019660501
  0.7253795198864933  0.9065742166021736  0.4219364133960938
  0.2216776964135098  0.2963592853978264  0.4882787972038997
  0.7226693690526778  0.5050982878041685  0.5222464086339508
  0.2358729776182394  0.8917546826412633  0.5884810513642397
  0.7303142684536946  0.1049712008846422  0.6201140700979652
  0.2266402636411981  0.5996232373300520  0.2807997070236899
  0.7311722095903194  0.7866214216395824  0.3226361904627855
  0.2254574104824958  0.1953173284228392  0.3874085876201666
  0.7243341342596149  0.4098562885076267  0.4232997655693676
  0.2227230820403802  0.7930772134923735  0.4869154450306329
  0.7215998058174997  0.0076161736771631  0.5228066229798266
  0.2158850068096779  0.4163120803604182  0.5875790201372151
  0.7204169526588037  0.6033102646699485  0.6294155035763109
  0.9031264090509815  0.5498667679942321  0.3142825516190703
  0.5412188584671488  0.7290379819167714  0.2724592307029887
  0.0513786805405591  0.8460875724316756  0.2929038340124521
  0.5275466148690019  0.0626278805660608  0.2542833553836601
  0.3688405751459472  0.3725962956443100  0.2925034629549217
  0.0904712579834608  0.5618329246711368  0.2379529752370595
  0.5904561436033223  0.0283801157450190  0.3149389223192884
  0.8554490893810883  0.1951583052082933  0.2736648801060683
  0.9080419933545948  0.1515522678317299  0.4164909675827256
  0.5439127871638978  0.3259824131734197  0.3726485396689735
  0.0414993608460829  0.4530780262192663  0.3941203086763836
  0.4149281339638020  0.6796603833142755  0.3394469823074621
  0.3793493187798064  0.9746640185204316  0.3931596595154238
  0.0742160314072732  0.1798931160640106  0.3421555870150873
  0.5735370059948031  0.6311107902619891  0.4173478857551772
  0.8790360529132577  0.8248497171541546  0.3680350746018404
  0.9055578554539200  0.7498554757807346  0.5160949019236172
  0.5402520015782198  0.9237303416569690  0.4726561597955612
  0.0390152229454010  0.0513812341682634  0.4937242430172749
  0.4068052147217828  0.2792031603430313  0.4375590508044394
  0.3735202103051927  0.5718227118380060  0.4928673248448233
  0.0721355879291788  0.7791569075874151  0.4414518321117750
  0.5677078975201958  0.2282694834795687  0.5170555510845771
  0.8749216283708168  0.4237765944125861  0.4687633784882256
  0.8956785358594456  0.3568459295683247  0.6173113765875482
  0.5321290824362037  0.5232731186857250  0.5707682282925384
  0.0439308072490211  0.6530667341057702  0.5959326589809302
  0.4031444291360978  0.8769510889265757  0.5375666709310267
  0.3566010726966805  0.1745533862549815  0.5952762882807123
  0.0680211633867452  0.3780837848458455  0.5421801359981603
  0.5782166411540556  0.8303372063556905  0.6177117476450795
  0.8728411848927220  0.0230403860359915  0.5680596235849140
  0.4195106014309942  0.1403056214339397  0.6559318552163406
  0.4058383578328543  0.4738955200832290  0.6377559798970120
  0.0916081269189146  0.0077751967917071  0.6365503304939324
  0.8565859584165370  0.6411005773288637  0.6722622353629409
 
  0.00000000E+00  0.00000000E+00  0.00000000E+00
  0.00000000E+00  0.00000000E+00  0.00000000E+00
  0.00000000E+00  0.00000000E+00  0.00000000E+00
  0.00000000E+00  0.00000000E+00  0.00000000E+00
  0.00000000E+00  0.00000000E+00  0.00000000E+00
  0.00000000E+00  0.00000000E+00  0.00000000E+00
  0.00000000E+00  0.00000000E+00  0.00000000E+00
  0.00000000E+00  0.00000000E+00  0.00000000E+00
  0.00000000E+00  0.00000000E+00  0.00000000E+00
  0.00000000E+00  0.00000000E+00  0.00000000E+00
  0.00000000E+00  0.00000000E+00  0.00000000E+00
  0.00000000E+00  0.00000000E+00  0.00000000E+00
  0.00000000E+00  0.00000000E+00  0.00000000E+00
  0.00000000E+00  0.00000000E+00  0.00000000E+00
  0.00000000E+00  0.00000000E+00  0.00000000E+00
  0.00000000E+00  0.00000000E+00  0.00000000E+00
  0.00000000E+00  0.00000000E+00  0.00000000E+00
  0.00000000E+00  0.00000000E+00  0.00000000E+00
  0.00000000E+00  0.00000000E+00  0.00000000E+00
  0.00000000E+00  0.00000000E+00  0.00000000E+00
  0.00000000E+00  0.00000000E+00  0.00000000E+00
  0.00000000E+00  0.00000000E+00  0.00000000E+00
  0.00000000E+00  0.00000000E+00  0.00000000E+00
  0.00000000E+00  0.00000000E+00  0.00000000E+00
  0.00000000E+00  0.00000000E+00  0.00000000E+00
  0.00000000E+00  0.00000000E+00  0.00000000E+00
  0.00000000E+00  0.00000000E+00  0.00000000E+00
  0.00000000E+00  0.00000000E+00  0.00000000E+00
  0.00000000E+00  0.00000000E+00  0.00000000E+00
  0.00000000E+00  0.00000000E+00  0.00000000E+00
  0.00000000E+00  0.00000000E+00  0.00000000E+00
  0.00000000E+00  0.00000000E+00  0.00000000E+00
  0.00000000E+00  0.00000000E+00  0.00000000E+00
  0.00000000E+00  0.00000000E+00  0.00000000E+00
  0.00000000E+00  0.00000000E+00  0.00000000E+00
  0.00000000E+00  0.00000000E+00  0.00000000E+00
  0.00000000E+00  0.00000000E+00  0.00000000E+00
  0.00000000E+00  0.00000000E+00  0.00000000E+00
  0.00000000E+00  0.00000000E+00  0.00000000E+00
  0.00000000E+00  0.00000000E+00  0.00000000E+00
  0.00000000E+00  0.00000000E+00  0.00000000E+00
  0.00000000E+00  0.00000000E+00  0.00000000E+00
  0.00000000E+00  0.00000000E+00  0.00000000E+00
  0.00000000E+00  0.00000000E+00  0.00000000E+00
  0.00000000E+00  0.00000000E+00  0.00000000E+00
  0.00000000E+00  0.00000000E+00  0.00000000E+00
  0.00000000E+00  0.00000000E+00  0.00000000E+00
  0.00000000E+00  0.00000000E+00  0.00000000E+00
  0.00000000E+00  0.00000000E+00  0.00000000E+00
  0.00000000E+00  0.00000000E+00  0.00000000E+00
  0.00000000E+00  0.00000000E+00  0.00000000E+00
  0.00000000E+00  0.00000000E+00  0.00000000E+00
