# Compound: Zn8W8O36. Old comment: O36W8
   1.00000000000000     
     4.9265814974000000    0.0000000000000000    0.0000000000000000
     0.0477443875000000    7.3810857030000001    0.0000000000000000
     0.0000000000000000    0.0000000000000000   36.1569788361000022
   Zn   W    O 
     8     8    36
Direct
  0.2296370651555995  0.6513270182986329  0.4261515450454049
  0.7136906603440356  0.2355244424845565  0.3644700578826934
  0.2194947604483191  0.2552530423037164  0.5273179835688566
  0.7251850238301289  0.8653505996105144  0.4623897369726755
  0.2114275050698706  0.8561508787894860  0.6273950524273239
  0.7171177684516806  0.4662484360962841  0.5624668058311428
  0.2229218685559710  0.4859770359154440  0.7253147315173063
  0.7069754637444006  0.0701744602013697  0.6636332443545947
  0.2225101907794017  0.1507373596796729  0.4267871174645491
  0.7098827838673193  0.7740783900232057  0.3646685863623872
  0.2194203885975922  0.7535450303158424  0.5266821590433260
  0.7230722002648721  0.3693794483664695  0.4630471105984001
  0.2135403286351275  0.3521220300335309  0.6267376788015995
  0.7171921403024076  0.9679564481841598  0.5631026303566734
  0.2267297450326798  0.9474230883767948  0.7251162030376194
  0.7141023381205985  0.5707641187203276  0.6629976719354504
  0.8177307751398974  0.4945847649769358  0.3592064455458935
 -0.0928590341892367  0.7317349941878313  0.3239919031451293
  0.5480616658697358  0.3701398555207259  0.3234118391166164
  0.5796933040783842 -0.0051498114103170  0.3544266989418327
  0.9085412099668646  0.1105154055534269  0.4565996607148365
  0.5391156086578472  0.2850571562589030  0.4133124619204246
  0.0409298785324846  0.4120989271172795  0.4341985540356648
  0.4059137599851232  0.6360457446937221  0.3747230715228224
  0.3890428455593832  0.9314537654512137  0.4314245415473982
  0.0698196577583420  0.1483752407194413  0.3821391564499831
  0.5732516998767536  0.5914784758806250  0.4560296043616060
  0.9082072437239244  0.7898919006480652  0.4068806849429138
  0.9011171831187200  0.7102603528931709  0.5558200622433203
  0.5369025001537955  0.8846864925322891  0.5125511529431411
  0.0354953457812794  0.0112411255068293  0.5339647271566792
  0.4051462733013591  0.2380707379173106  0.4773435290846614
  0.3712096317225833  0.5323235777012431  0.5328094625552534
  0.0715971968287957  0.7395264347551785  0.4810758443318096
  0.5654028971774165  0.1891779007987592  0.5569753268447531
  0.8707267822843359  0.3847313635840353  0.5086059242603546
  0.8956826503675148  0.3094025512827210  0.6555862353643346
  0.5314662555986399  0.4834307404826831  0.6124412603153379
  0.0280713189331342  0.6109860729465757  0.6331851286851627
  0.3997100287462041  0.8368149859677131  0.5772336364568583
  0.3633608290232455  0.1300230026193765  0.6337551850383927
  0.0658857466156637  0.3367701148159651  0.5811788651396449
  0.5475696833406164  0.7900477129487867  0.6583602478526015
  0.8650153319712089  0.9819750437448237  0.6087089450681901
  0.0294715630892365  0.9897664842121692  0.7657928862548699
  0.5306987689148766  0.0854557337062781  0.7150617178771769
  0.1188817537601018  0.2269167135230591  0.7305783438541054
  0.3974969202421600  0.4364443222410992  0.6764723274795754
  0.3569192248216156  0.7266512898103171  0.7353580904581670
  0.0284052851760750  0.9316095777519352  0.6829041044570852
  0.3885508630302633  0.3513616228792746  0.7663729502833835
  0.8667928711416574  0.5731262377805607  0.7076456329500170
 
  0.00000000E+00  0.00000000E+00  0.00000000E+00
  0.00000000E+00  0.00000000E+00  0.00000000E+00
  0.00000000E+00  0.00000000E+00  0.00000000E+00
  0.00000000E+00  0.00000000E+00  0.00000000E+00
  0.00000000E+00  0.00000000E+00  0.00000000E+00
  0.00000000E+00  0.00000000E+00  0.00000000E+00
  0.00000000E+00  0.00000000E+00  0.00000000E+00
  0.00000000E+00  0.00000000E+00  0.00000000E+00
  0.00000000E+00  0.00000000E+00  0.00000000E+00
  0.00000000E+00  0.00000000E+00  0.00000000E+00
  0.00000000E+00  0.00000000E+00  0.00000000E+00
  0.00000000E+00  0.00000000E+00  0.00000000E+00
  0.00000000E+00  0.00000000E+00  0.00000000E+00
  0.00000000E+00  0.00000000E+00  0.00000000E+00
  0.00000000E+00  0.00000000E+00  0.00000000E+00
  0.00000000E+00  0.00000000E+00  0.00000000E+00
  0.00000000E+00  0.00000000E+00  0.00000000E+00
  0.00000000E+00  0.00000000E+00  0.00000000E+00
  0.00000000E+00  0.00000000E+00  0.00000000E+00
  0.00000000E+00  0.00000000E+00  0.00000000E+00
  0.00000000E+00  0.00000000E+00  0.00000000E+00
  0.00000000E+00  0.00000000E+00  0.00000000E+00
  0.00000000E+00  0.00000000E+00  0.00000000E+00
  0.00000000E+00  0.00000000E+00  0.00000000E+00
  0.00000000E+00  0.00000000E+00  0.00000000E+00
  0.00000000E+00  0.00000000E+00  0.00000000E+00
  0.00000000E+00  0.00000000E+00  0.00000000E+00
  0.00000000E+00  0.00000000E+00  0.00000000E+00
  0.00000000E+00  0.00000000E+00  0.00000000E+00
  0.00000000E+00  0.00000000E+00  0.00000000E+00
  0.00000000E+00  0.00000000E+00  0.00000000E+00
  0.00000000E+00  0.00000000E+00  0.00000000E+00
  0.00000000E+00  0.00000000E+00  0.00000000E+00
  0.00000000E+00  0.00000000E+00  0.00000000E+00
  0.00000000E+00  0.00000000E+00  0.00000000E+00
  0.00000000E+00  0.00000000E+00  0.00000000E+00
  0.00000000E+00  0.00000000E+00  0.00000000E+00
  0.00000000E+00  0.00000000E+00  0.00000000E+00
  0.00000000E+00  0.00000000E+00  0.00000000E+00
  0.00000000E+00  0.00000000E+00  0.00000000E+00
  0.00000000E+00  0.00000000E+00  0.00000000E+00
  0.00000000E+00  0.00000000E+00  0.00000000E+00
  0.00000000E+00  0.00000000E+00  0.00000000E+00
  0.00000000E+00  0.00000000E+00  0.00000000E+00
  0.00000000E+00  0.00000000E+00  0.00000000E+00
  0.00000000E+00  0.00000000E+00  0.00000000E+00
  0.00000000E+00  0.00000000E+00  0.00000000E+00
  0.00000000E+00  0.00000000E+00  0.00000000E+00
  0.00000000E+00  0.00000000E+00  0.00000000E+00
  0.00000000E+00  0.00000000E+00  0.00000000E+00
  0.00000000E+00  0.00000000E+00  0.00000000E+00
  0.00000000E+00  0.00000000E+00  0.00000000E+00
