Generated by VASPKIT code
 1.000000
    9.8531629947999999    0.0000000000000000    0.0000000000000000
    0.0954887750000000   14.7621714060000002    0.0000000000000000
    0.0000000000000000    0.0000000000000000   36.1569788361000022
   Zn   W    O 
    40    40   160
Direct
    0.1084565825335652    0.9997847141663816    0.3330360331474007    Zn001
    0.1084565825335652    0.4997847141663817    0.3330360331474007    Zn002
    0.6084565825335652    0.9997847141663816    0.3330360331474007    Zn003
    0.6084565825335652    0.4997847141663817    0.3330360331474007    Zn004
    0.3998783831147658    0.3212184292228786    0.2747773166271212    Zn005
    0.3998783831147658    0.8212184292228786    0.2747773166271212    Zn006
    0.8998783831147658    0.3212184292228786    0.2747773166271212    Zn007
    0.8998783831147658    0.8212184292228786    0.2747773166271212    Zn008
    0.1125566138100837    0.2982064908041322    0.4324964949610735    Zn009
    0.1125566138100837    0.7982064908041322    0.4324964949610735    Zn010
    0.6125566138100837    0.2982064908041322    0.4324964949610735    Zn011
    0.6125566138100837    0.7982064908041322    0.4324964949610735    Zn012
    0.3644412068785214    0.1029686348558557    0.3665430275369300    Zn013
    0.3644412068785214    0.6029686348558557    0.3665430275369300    Zn014
    0.8644412068785214    0.1029686348558557    0.3665430275369300    Zn015
    0.8644412068785214    0.6029686348558557    0.3665430275369300    Zn016
    0.1091944532259994    0.0971556406406652    0.5322524516161977    Zn017
    0.1091944532259994    0.5971556406406652    0.5322524516161977    Zn018
    0.6091944532259994    0.0971556406406652    0.5322524516161977    Zn019
    0.6091944532259994    0.5971556406406652    0.5322524516161977    Zn020
    0.3617229831240003    0.4037755204593371    0.4677475483838024    Zn021
    0.3617229831240003    0.9037755204593371    0.4677475483838024    Zn022
    0.8617229831240003    0.4037755204593371    0.4677475483838024    Zn023
    0.8617229831240003    0.9037755204593371    0.4677475483838024    Zn024
    0.1064762294214775    0.3979625262441431    0.6334569724630698    Zn025
    0.1064762294214775    0.8979625262441431    0.6334569724630698    Zn026
    0.6064762294214775    0.3979625262441431    0.6334569724630698    Zn027
    0.6064762294214775    0.8979625262441431    0.6334569724630698    Zn028
    0.3583608224899186    0.2027246702958664    0.5675035050389263    Zn029
    0.3583608224899186    0.7027246702958664    0.5675035050389263    Zn030
    0.8583608224899186    0.2027246702958664    0.5675035050389263    Zn031
    0.8583608224899186    0.7027246702958664    0.5675035050389263    Zn032
    0.0710390531852334    0.1797127319271210    0.7252226833728791    Zn033
    0.0710390531852334    0.6797127319271210    0.7252226833728791    Zn034
    0.5710390531852334    0.1797127319271210    0.7252226833728791    Zn035
    0.5710390531852334    0.6797127319271210    0.7252226833728791    Zn036
    0.3624608537664336    0.0011464469836178    0.6669639668525995    Zn037
    0.3624608537664336    0.5011464469836178    0.6669639668525995    Zn038
    0.8624608537664336    0.0011464469836178    0.6669639668525995    Zn039
    0.8624608537664336    0.5011464469836178    0.6669639668525995    Zn040
    0.1146381750335652    0.2460136167289041    0.3315149239634583     W001
    0.1146381750335652    0.7460136167289041    0.3315149239634583     W002
    0.6146381750335652    0.2460136167289041    0.3315149239634583     W003
    0.6146381750335652    0.7460136167289041    0.3315149239634583     W004
    0.3509503196807924    0.0334982390247590    0.2708273470042024     W005
    0.3509503196807924    0.5334982390247590    0.2708273470042024     W006
    0.8509503196807924    0.0334982390247590    0.2708273470042024     W007
    0.8509503196807924    0.5334982390247590    0.2708273470042024     W008
    0.1133078295461111    0.0468520954968663    0.4319965734133777     W009
    0.1133078295461111    0.5468520954968663    0.4319965734133777     W010
    0.6133078295461111    0.0468520954968663    0.4319965734133777     W011
    0.6133078295461111    0.5468520954968663    0.4319965734133777     W012
    0.3629595249970974    0.3546257811234805    0.3682123554195764     W013
    0.3629595249970974    0.8546257811234805    0.3682123554195764     W014
    0.8629595249970974    0.3546257811234805    0.3682123554195764     W015
    0.8629595249970974    0.8546257811234805    0.3682123554195764     W016
    0.1089168136117159    0.3463776400639154    0.5322004464319481     W017
    0.1089168136117159    0.8463776400639154    0.5322004464319481     W018
    0.6089168136117159    0.3463776400639154    0.5322004464319481     W019
    0.6089168136117159    0.8463776400639154    0.5322004464319481     W020
    0.3620006226882831    0.1545535210860840    0.4677995535680515     W021
    0.3620006226882831    0.6545535210860840    0.4677995535680515     W022
    0.8620006226882831    0.1545535210860840    0.4677995535680515     W023
    0.8620006226882831    0.6545535210860840    0.4677995535680515     W024
    0.1079579113029016    0.1463053799765219    0.6317876445804239     W025
    0.1079579113029016    0.6463053799765219    0.6317876445804239     W026
    0.6079579113029016    0.1463053799765219    0.6317876445804239     W027
    0.6079579113029016    0.6463053799765219    0.6317876445804239     W028
    0.3576096067538880    0.4540790656531331    0.5680034265866218     W029
    0.3576096067538880    0.9540790656531331    0.5680034265866218     W030
    0.8576096067538880    0.4540790656531331    0.5680034265866218     W031
    0.8576096067538880    0.9540790656531331    0.5680034265866218     W032
    0.1199671166192103    0.4674329220752396    0.7291726529957974     W033
    0.1199671166192103    0.9674329220752396    0.7291726529957974     W034
    0.6199671166192103    0.4674329220752396    0.7291726529957974     W035
    0.6199671166192103    0.9674329220752396    0.7291726529957974     W036
    0.3562792612664369    0.2549175443710949    0.6684850760365418     W037
    0.3562792612664369    0.7549175443710949    0.6684850760365418     W038
    0.8562792612664369    0.2549175443710949    0.6684850760365418     W039
    0.8562792612664369    0.7549175443710949    0.6684850760365418     W040
    0.4154448481877335    0.4296439473322418    0.2490696082475324     O001
    0.4154448481877335    0.9296439473322418    0.2490696082475324     O002
    0.9154448481877335    0.4296439473322418    0.2490696082475324     O003
    0.9154448481877335    0.9296439473322418    0.2490696082475324     O004
    0.2731621252966661    0.3132148410789285    0.3166712248137780     O005
    0.2731621252966661    0.8132148410789285    0.3166712248137780     O006
    0.7731621252966661    0.3132148410789285    0.3166712248137780     O007
    0.7731621252966661    0.8132148410789285    0.3166712248137780     O008
    0.0176214075298149    0.3764003788562302    0.3370346103797424     O009
    0.0176214075298149    0.8764003788562302    0.3370346103797424     O010
    0.5176214075298149    0.3764003788562302    0.3370346103797424     O011
    0.5176214075298149    0.8764003788562302    0.3370346103797424     O012
    0.1790672159314919    0.0082486105903709    0.2823164421918579     O013
    0.1790672159314919    0.5082486105903710    0.2823164421918579     O014
    0.6790672159314919    0.0082486105903709    0.2823164421918579     O015
    0.6790672159314919    0.5082486105903710    0.2823164421918579     O016
    0.1915318640268853    0.1370244765954444    0.3382236542779885     O017
    0.1915318640268853    0.6370244765954444    0.3382236542779885     O018
    0.6915318640268853    0.1370244765954444    0.3382236542779885     O019
    0.6915318640268853    0.6370244765954444    0.3382236542779885     O020
    0.0432700938009619    0.2398001447083375    0.2861025653578726     O021
    0.0432700938009619    0.7398001447083375    0.2861025653578726     O022
    0.5432700938009619    0.2398001447083375    0.2861025653578726     O023
    0.5432700938009619    0.7398001447083375    0.2861025653578726     O024
    0.3530642894873792    0.1275419154325593    0.2418933682586952     O025
    0.3530642894873792    0.6275419154325593    0.2418933682586952     O026
    0.8530642894873792    0.1275419154325593    0.2418933682586952     O027
    0.8530642894873792    0.6275419154325593    0.2418933682586952     O028
    0.4359159200100482    0.0610021206592105    0.3144855773389830     O029
    0.4359159200100482    0.5610021206592105    0.3144855773389830     O030
    0.9359159200100482    0.0610021206592105    0.3144855773389830     O031
    0.9359159200100482    0.5610021206592105    0.3144855773389830     O032
    0.4556393603076671    0.2261705079914553    0.3609078882862564     O033
    0.4556393603076671    0.7261705079914553    0.3609078882862564     O034
    0.9556393603076671    0.2261705079914553    0.3609078882862564     O035
    0.9556393603076671    0.7261705079914553    0.3609078882862564     O036
    0.2716898215517072    0.1121364807303032    0.4174260685634529     O037
    0.2716898215517072    0.6121364807303031    0.4174260685634529     O038
    0.7716898215517072    0.1121364807303032    0.4174260685634529     O039
    0.7716898215517072    0.6121364807303031    0.4174260685634529     O040
    0.0212227099545417    0.1760166639903011    0.4387960725676252     O041
    0.0212227099545417    0.6760166639903011    0.4387960725676252     O042
    0.5212227099545417    0.1760166639903011    0.4387960725676252     O043
    0.5212227099545417    0.6760166639903011    0.4387960725676252     O044
    0.2036498815633522    0.2900398478972717    0.3816791851095154     O045
    0.2036498815633522    0.7900398478972717    0.3816791851095154     O046
    0.7036498815633522    0.2900398478972717    0.3816791851095154     O047
    0.7036498815633522    0.7900398478972717    0.3816791851095154     O048
    0.1888844008814291    0.4361116234563313    0.4383283413663370     O049
    0.1888844008814291    0.9361116234563313    0.4383283413663370     O050
    0.6888844008814291    0.4361116234563313    0.4383283413663370     O051
    0.6888844008814291    0.9361116234563313    0.4383283413663370     O052
    0.0368955442668112    0.0390975300864295    0.3867731101474219     O053
    0.0368955442668112    0.5390975300864295    0.3867731101474219     O054
    0.5368955442668112    0.0390975300864295    0.3867731101474219     O055
    0.5368955442668112    0.5390975300864295    0.3867731101474219     O056
    0.2843588543822830    0.4639899049102285    0.3620841020820674     O057
    0.2843588543822830    0.9639899049102285    0.3620841020820674     O058
    0.7843588543822830    0.4639899049102285    0.3620841020820674     O059
    0.7843588543822830    0.9639899049102285    0.3620841020820674     O060
    0.4401142446705042    0.3624597105095407    0.4133073171797439     O061
    0.4401142446705042    0.8624597105095407    0.4133073171797439     O062
    0.9401142446705042    0.3624597105095407    0.4133073171797439     O063
    0.9401142446705042    0.8624597105095407    0.4133073171797439     O064
    0.4540045598758857    0.0256402573959542    0.4611889685242054     O065
    0.4540045598758857    0.5256402573959542    0.4611889685242054     O066
    0.9540045598758857    0.0256402573959542    0.4611889685242054     O067
    0.9540045598758857    0.5256402573959542    0.4611889685242054     O068
    0.2676135996818572    0.4118501993666350    0.5177422126987290     O069
    0.2676135996818572    0.9118501993666350    0.5177422126987290     O070
    0.7676135996818572    0.4118501993666350    0.5177422126987290     O071
    0.7676135996818572    0.9118501993666350    0.5177422126987290     O072
    0.0169128764241131    0.4752909037040446    0.5388110314757942     O073
    0.0169128764241131    0.9752909037040446    0.5388110314757942     O074
    0.5169128764241131    0.4752909037040446    0.5388110314757942     O075
    0.5169128764241131    0.9752909037040446    0.5388110314757942     O076
    0.2033038366181452    0.0890809617333674    0.4822577873012714     O077
    0.2033038366181452    0.5890809617333674    0.4822577873012714     O078
    0.7033038366181452    0.0890809617333674    0.4822577873012714     O079
    0.7033038366181452    0.5890809617333674    0.4822577873012714     O080
    0.1851723174184035    0.2358203598299974    0.5384579375177441     O081
    0.1851723174184035    0.7358203598299974    0.5384579375177441     O082
    0.6851723174184035    0.2358203598299974    0.5384579375177441     O083
    0.6851723174184035    0.7358203598299974    0.5384579375177441     O084
    0.0344731187187709    0.3389914836582402    0.4866605818740097     O085
    0.0344731187187709    0.8389914836582402    0.4866605818740097     O086
    0.5344731187187708    0.3389914836582402    0.4866605818740097     O087
    0.5344731187187708    0.8389914836582402    0.4866605818740097     O088
    0.2857451188815950    0.2651108013200025    0.4615420624822562     O089
    0.2857451188815950    0.7651108013200025    0.4615420624822562     O090
    0.7857451188815950    0.2651108013200025    0.4615420624822562     O091
    0.7857451188815950    0.7651108013200025    0.4615420624822562     O092
    0.4364443175812278    0.1619396774417626    0.5133394181259908     O093
    0.4364443175812278    0.6619396774417626    0.5133394181259908     O094
    0.9364443175812278    0.1619396774417626    0.5133394181259908     O095
    0.9364443175812278    0.6619396774417626    0.5133394181259908     O096
    0.4496947263454605    0.3249144971096971    0.5612039274323747     O097
    0.4496947263454605    0.8249144971096971    0.5612039274323747     O098
    0.9496947263454605    0.3249144971096971    0.5612039274323747     O099
    0.9496947263454605    0.8249144971096971    0.5612039274323747     O100
    0.2672675547366500    0.2108913132027307    0.6183208148904841     O101
    0.2672675547366500    0.7108913132027307    0.6183208148904841     O102
    0.7672675547366500    0.2108913132027307    0.6183208148904841     O103
    0.7672675547366500    0.7108913132027307    0.6183208148904841     O104
    0.0152780759923317    0.2747606531585478    0.6390921117137428     O105
    0.0152780759923317    0.7747606531585478    0.6390921117137428     O106
    0.5152780759923317    0.2747606531585478    0.6390921117137428     O107
    0.5152780759923317    0.7747606531585478    0.6390921117137428     O108
    0.1992276147482915    0.3887946804196964    0.5825739314365469     O109
    0.1992276147482915    0.8887946804196964    0.5825739314365469     O110
    0.6992276147482915    0.3887946804196964    0.5825739314365469     O111
    0.6992276147482915    0.8887946804196964    0.5825739314365469     O112
    0.1865585819177193    0.0369412561897735    0.6379158979179325     O113
    0.1865585819177193    0.5369412561897735    0.6379158979179325     O114
    0.6865585819177193    0.0369412561897735    0.6379158979179325     O115
    0.6865585819177193    0.5369412561897735    0.6379158979179325     O116
    0.0308031916294983    0.1384714505904583    0.5866926828202562     O117
    0.0308031916294983    0.6384714505904583    0.5866926828202562     O118
    0.5308031916294983    0.1384714505904583    0.5866926828202562     O119
    0.5308031916294983    0.6384714505904583    0.5866926828202562     O120
    0.2820330354185694    0.0648195376436709    0.5616716586336630     O121
    0.2820330354185694    0.5648195376436709    0.5616716586336630     O122
    0.7820330354185694    0.0648195376436709    0.5616716586336630     O123
    0.7820330354185694    0.5648195376436709    0.5616716586336630     O124
    0.4340218920331879    0.4618336310635702    0.6132268898525768     O125
    0.4340218920331879    0.9618336310635702    0.6132268898525768     O126
    0.9340218920331879    0.4618336310635702    0.6132268898525768     O127
    0.9340218920331879    0.9618336310635702    0.6132268898525768     O128
    0.4532960287701877    0.1245307822437719    0.6629653896202576     O129
    0.4532960287701877    0.6245307822437718    0.6629653896202576     O130
    0.9532960287701877    0.1245307822437719    0.6629653896202576     O131
    0.9532960287701877    0.6245307822437718    0.6629653896202576     O132
    0.2918502203685072    0.9926825505096279    0.7176835578081420     O133
    0.2918502203685072    0.4926825505096278    0.7176835578081420     O134
    0.7918502203685072    0.9926825505096279    0.7176835578081420     O135
    0.7918502203685072    0.4926825505096278    0.7176835578081420     O136
    0.0554725881122689    0.0712872137677573    0.7509303917524677     O137
    0.0554725881122689    0.5712872137677574    0.7509303917524677     O138
    0.5554725881122689    0.0712872137677573    0.7509303917524677     O139
    0.5554725881122689    0.5712872137677574    0.7509303917524677     O140
    0.1977553110033331    0.1877163200210741    0.6833287751862224     O141
    0.1977553110033331    0.6877163200210741    0.6833287751862224     O142
    0.6977553110033331    0.1877163200210741    0.6833287751862224     O143
    0.6977553110033331    0.6877163200210741    0.6833287751862224     O144
    0.1178531468126233    0.3733892456674394    0.7581066317413051     O145
    0.1178531468126233    0.8733892456674394    0.7581066317413051     O146
    0.6178531468126233    0.3733892456674394    0.7581066317413051     O147
    0.6178531468126233    0.8733892456674394    0.7581066317413051     O148
    0.0350015163399519    0.4399290404407883    0.6855144226610164     O149
    0.0350015163399519    0.9399290404407883    0.6855144226610164     O150
    0.5350015163399519    0.4399290404407883    0.6855144226610164     O151
    0.5350015163399519    0.9399290404407883    0.6855144226610164     O152
    0.2793855722731170    0.3639066845045544    0.6617763457220115     O153
    0.2793855722731170    0.8639066845045544    0.6617763457220115     O154
    0.7793855722731170    0.3639066845045544    0.6617763457220115     O155
    0.7793855722731170    0.8639066845045544    0.6617763457220115     O156
    0.4276473424990371    0.2611310163916614    0.7138974346421276     O157
    0.4276473424990371    0.7611310163916614    0.7138974346421276     O158
    0.9276473424990371    0.2611310163916614    0.7138974346421276     O159
    0.9276473424990371    0.7611310163916614    0.7138974346421276     O160
