# Compound: Zn10W10O36. Old comment: O36
   1.00000000000000     
     5.7182516300000001    0.0000000000000000    0.0000000000000000
     0.0000000000000000    6.8209927766999998    0.0000000000000000
     0.0000000000000000    0.0000000000000000   33.7091034927000024
   Zn   W    O 
    10    10    36
Direct
  0.8605059925996834  0.8881287588396636  0.2728015049449968
  0.3474463564323523  0.0558183896257096  0.3247715896423161
  0.6864818355931445  0.3302547681572593  0.3715295401637200
  0.3264851098199069  0.5875357180168548  0.4175179933767953
  0.6725896755231342  0.8530215552132249  0.4695077879588897
  0.3274103244768657  0.1168097404867793  0.5202770014411071
  0.6735148901800934  0.3822955777831436  0.5722667960232036
  0.3135181644068563  0.6395765276427394  0.6182552492362854
  0.6525536435676481  0.9140129061742899  0.6650131997576828
  0.1394940074003160  0.0817025369603358  0.7169832844550016
  0.2207672530111884  0.5711604060616087  0.3131160172936754
  0.8522751489429762  0.2907836447189371  0.2793444721933884
  0.1794237182241819  0.0934861435863978  0.4198609901406178
  0.8313042378439274  0.8174973528567694  0.3695793405006071
  0.1796715427383398  0.6178051252213572  0.5189677790508440
  0.8203284572616598  0.3520261704786472  0.4708170103491537
  0.1686957621560728  0.1523339429432297  0.6202054488993972
  0.8205762817758179  0.8763451522136014  0.5699237992593804
  0.1477248510570236  0.6790476510810617  0.7104403172066091
  0.7792327469888111  0.3986708897383898  0.6766687721063218
  0.1207159633339389  0.8382800139853561  0.3250795457165002
  0.1645000243328511  0.2853194283809559  0.3022310568802837
  0.9031425901508855  0.5570565314250608  0.3573701245868464
  0.9451912739739866  0.5708180650657566  0.2750859782536591
  0.4342771523240764  0.6220212656765584  0.2784539460421587
  0.3836934617497822  0.5236914109177472  0.3591094167469608
  0.6076716724192425  0.2568787895951066  0.3104202626640732
  0.6366194630145916  0.8779095006935378  0.3291696055315482
  0.1055243950907606  0.3612249867577361  0.4296711787795880
  0.1146953899258851  0.8211493953388471  0.4084359109991086
  0.8920284694848649  0.0838635266567225  0.4595660201488240
  0.9074864290190735  0.0969047908959138  0.3784651081203331
  0.3901882547207735  0.1387414010063990  0.3809890865887676
  0.3718844011870385  0.0473203048164789  0.4614837013716053
  0.6322054752181920  0.7842605866272260  0.4103732519806207
  0.6258658727506614  0.3987954223042897  0.4295629776254609
  0.1079715305151351  0.8859677690432748  0.5302187692511747
  0.1059133170893790  0.3462109701162875  0.5096742716110966
  0.8944756049092395  0.6086063090422625  0.5601136106204095
  0.8940866829106213  0.6236203255837089  0.4801105177889006
  0.3759705282386346  0.6581063112427687  0.4780129467172954
  0.3741341272493385  0.5710358734957084  0.5602218117745368
  0.6240294717613657  0.3117249845572301  0.5117718426827091
  0.6281155988129610  0.9225109909835205  0.5283010880283923
  0.0968574098491148  0.4127747643749449  0.6324146648131589
  0.0925135709809269  0.8729265049040854  0.6113196812796724
  0.8792840366660608  0.1315512818146428  0.6647052436834980
  0.8853046100741152  0.1486819003611568  0.5813488784008893
  0.3677945247818083  0.1855707091727727  0.5794115374193847
  0.3633805369854080  0.0919217950064662  0.6606151838684562
  0.6098117452792265  0.8310898947936062  0.6087957028112303
  0.6163065382502172  0.4461398848822586  0.6306753726530377
  0.0548087260260128  0.3990132307342424  0.7146988111463390
  0.8354999756671488  0.6845118674190428  0.6875537325197136
  0.3923283275807569  0.7129525061048977  0.6793645267359236
  0.5657228476759234  0.3478100300234377  0.7113308433578387
 
  0.00000000E+00  0.00000000E+00  0.00000000E+00
  0.00000000E+00  0.00000000E+00  0.00000000E+00
  0.00000000E+00  0.00000000E+00  0.00000000E+00
  0.00000000E+00  0.00000000E+00  0.00000000E+00
  0.00000000E+00  0.00000000E+00  0.00000000E+00
  0.00000000E+00  0.00000000E+00  0.00000000E+00
  0.00000000E+00  0.00000000E+00  0.00000000E+00
  0.00000000E+00  0.00000000E+00  0.00000000E+00
  0.00000000E+00  0.00000000E+00  0.00000000E+00
  0.00000000E+00  0.00000000E+00  0.00000000E+00
  0.00000000E+00  0.00000000E+00  0.00000000E+00
  0.00000000E+00  0.00000000E+00  0.00000000E+00
  0.00000000E+00  0.00000000E+00  0.00000000E+00
  0.00000000E+00  0.00000000E+00  0.00000000E+00
  0.00000000E+00  0.00000000E+00  0.00000000E+00
  0.00000000E+00  0.00000000E+00  0.00000000E+00
  0.00000000E+00  0.00000000E+00  0.00000000E+00
  0.00000000E+00  0.00000000E+00  0.00000000E+00
  0.00000000E+00  0.00000000E+00  0.00000000E+00
  0.00000000E+00  0.00000000E+00  0.00000000E+00
  0.00000000E+00  0.00000000E+00  0.00000000E+00
  0.00000000E+00  0.00000000E+00  0.00000000E+00
  0.00000000E+00  0.00000000E+00  0.00000000E+00
  0.00000000E+00  0.00000000E+00  0.00000000E+00
  0.00000000E+00  0.00000000E+00  0.00000000E+00
  0.00000000E+00  0.00000000E+00  0.00000000E+00
  0.00000000E+00  0.00000000E+00  0.00000000E+00
  0.00000000E+00  0.00000000E+00  0.00000000E+00
  0.00000000E+00  0.00000000E+00  0.00000000E+00
  0.00000000E+00  0.00000000E+00  0.00000000E+00
  0.00000000E+00  0.00000000E+00  0.00000000E+00
  0.00000000E+00  0.00000000E+00  0.00000000E+00
  0.00000000E+00  0.00000000E+00  0.00000000E+00
  0.00000000E+00  0.00000000E+00  0.00000000E+00
  0.00000000E+00  0.00000000E+00  0.00000000E+00
  0.00000000E+00  0.00000000E+00  0.00000000E+00
  0.00000000E+00  0.00000000E+00  0.00000000E+00
  0.00000000E+00  0.00000000E+00  0.00000000E+00
  0.00000000E+00  0.00000000E+00  0.00000000E+00
  0.00000000E+00  0.00000000E+00  0.00000000E+00
  0.00000000E+00  0.00000000E+00  0.00000000E+00
  0.00000000E+00  0.00000000E+00  0.00000000E+00
  0.00000000E+00  0.00000000E+00  0.00000000E+00
  0.00000000E+00  0.00000000E+00  0.00000000E+00
  0.00000000E+00  0.00000000E+00  0.00000000E+00
  0.00000000E+00  0.00000000E+00  0.00000000E+00
  0.00000000E+00  0.00000000E+00  0.00000000E+00
  0.00000000E+00  0.00000000E+00  0.00000000E+00
  0.00000000E+00  0.00000000E+00  0.00000000E+00
  0.00000000E+00  0.00000000E+00  0.00000000E+00
  0.00000000E+00  0.00000000E+00  0.00000000E+00
  0.00000000E+00  0.00000000E+00  0.00000000E+00
  0.00000000E+00  0.00000000E+00  0.00000000E+00
  0.00000000E+00  0.00000000E+00  0.00000000E+00
  0.00000000E+00  0.00000000E+00  0.00000000E+00
  0.00000000E+00  0.00000000E+00  0.00000000E+00
