# Compound: Zn9W9O40. Old comment: O40W9
   1.00000000000000     
     5.7182516300000001    0.0000000000000000    0.0000000000000000
     0.0000000000000000    6.8209927766999998    0.0000000000000000
     0.0000000000000000    0.0000000000000000   33.7091034927000024
   Zn   W    O 
     9     9    40
Direct
  0.3208789513279844  0.0528167341107235  0.3233203059169956
  0.6769337468519877  0.3283404885461176  0.3700976642234164
  0.3226381535326815  0.5911877485580611  0.4198373192495486
  0.6774098363369466  0.8519449612240927  0.4688541103307232
  0.3293541246494130  0.1165971387000013  0.5198923947000011
  0.6774098363369466  0.3812493162759120  0.5709306790692732
  0.3226381535326815  0.6420065289419362  0.6199474701504544
  0.6769337468519877  0.9048537889538801  0.6696871251765870
  0.3208789513279844  0.1803775433892737  0.7164644834829995
  0.2232211149903144  0.5338247148654816  0.3138587242443128
  0.1781352660766321  0.0869577201384649  0.4208264262984350
  0.8211232722073891  0.8278096727023437  0.3664378973879139
  0.1825493578529393  0.6165971387000013  0.5198923947000011
  0.8222941279140525  0.3547553798339875  0.4700234709313316
  0.1781352660766321  0.1462365573615322  0.6189583631015679
  0.8222941279140525  0.8784388976660165  0.5697613184686626
  0.2232211149903144  0.6993695626345158  0.7259260651556830
  0.8211232722073891  0.4053846047976540  0.6733468920120891
  0.1174924776872586  0.8214137316206546  0.3294330439456258
  0.1204897603507347  0.2716693303234257  0.3037013837344482
  0.8964570403521007  0.5496578659006596  0.3565941490230350
  0.9096450370982317  0.6028499968427020  0.2929288260198838
  0.3678033971025344  0.6326320642523430  0.2738771311397221
  0.3930083775883364  0.5394272257315759  0.3628579596667456
  0.4903956311980928  0.3222704564966622  0.3163326997376109
  0.6130516175979079  0.8943870775685464  0.3300275548857495
  0.1054267704520251  0.3593041967870506  0.4299928932409643
  0.1090062906644305  0.8206128157859370  0.4089681242608522
  0.8921970891040877  0.0835872869737480  0.4597196179551133
  0.9007414373177148  0.0975418170592764  0.3777461787649286
  0.3834868184851203  0.1344373594062768  0.3817674488677713
  0.3753646539115696  0.0447443968694407  0.4617744572228904
  0.6414186822072335  0.7833980406457076  0.4098378172223113
  0.6261793400594593  0.3968156754817844  0.4290263999783248
  0.1088510768072783  0.8857319634541765  0.5297738568242246
  0.1088510768072783  0.3474623139458191  0.5100109325757777
  0.8972572159018540  0.6095656308687232  0.5598496460221678
  0.8972572159018540  0.6236286466312742  0.4799351433778275
  0.3779739739209607  0.6573880475787636  0.4784266378909175
  0.3779739739209607  0.5758062299212338  0.5613581515090857
  0.6270919317039056  0.3130498199949788  0.5112467748518295
  0.6270919317039056  0.9201444575050187  0.5285380145481728
  0.1090062906644305  0.4125814617140673  0.6308166651391506
  0.1054267704520251  0.8738900807129466  0.6097918961590376
  0.9007414373177148  0.1356524604407280  0.6620386106350740
  0.8921970891040877  0.1496069904262547  0.5800651714448821
  0.3753646539115696  0.1884498806305565  0.5780103321771120
  0.3834868184851203  0.0987569180937275  0.6580173405322310
  0.6261793400594593  0.8363786020182197  0.6107583894216697
  0.6414186822072335  0.4497962368542970  0.6299469721776912
  0.1204897603507347  0.9615249471765716  0.7360834056655466
  0.1174924776872586  0.4117805458793431  0.7103517454543692
  0.9096450370982317  0.6303442806572953  0.7468559633801187
  0.8964570403521007  0.6835364115993449  0.6831906403769670
  0.3930083775883364  0.6937670517684286  0.6769268297332492
  0.3678033971025344  0.6005622131476526  0.7659076582602805
  0.6130516175979079  0.3388071998314565  0.7097572345142520
  0.4903956311980928  0.9109238209033406  0.7234520896623906
 
  0.00000000E+00  0.00000000E+00  0.00000000E+00
  0.00000000E+00  0.00000000E+00  0.00000000E+00
  0.00000000E+00  0.00000000E+00  0.00000000E+00
  0.00000000E+00  0.00000000E+00  0.00000000E+00
  0.00000000E+00  0.00000000E+00  0.00000000E+00
  0.00000000E+00  0.00000000E+00  0.00000000E+00
  0.00000000E+00  0.00000000E+00  0.00000000E+00
  0.00000000E+00  0.00000000E+00  0.00000000E+00
  0.00000000E+00  0.00000000E+00  0.00000000E+00
  0.00000000E+00  0.00000000E+00  0.00000000E+00
  0.00000000E+00  0.00000000E+00  0.00000000E+00
  0.00000000E+00  0.00000000E+00  0.00000000E+00
  0.00000000E+00  0.00000000E+00  0.00000000E+00
  0.00000000E+00  0.00000000E+00  0.00000000E+00
  0.00000000E+00  0.00000000E+00  0.00000000E+00
  0.00000000E+00  0.00000000E+00  0.00000000E+00
  0.00000000E+00  0.00000000E+00  0.00000000E+00
  0.00000000E+00  0.00000000E+00  0.00000000E+00
  0.00000000E+00  0.00000000E+00  0.00000000E+00
  0.00000000E+00  0.00000000E+00  0.00000000E+00
  0.00000000E+00  0.00000000E+00  0.00000000E+00
  0.00000000E+00  0.00000000E+00  0.00000000E+00
  0.00000000E+00  0.00000000E+00  0.00000000E+00
  0.00000000E+00  0.00000000E+00  0.00000000E+00
  0.00000000E+00  0.00000000E+00  0.00000000E+00
  0.00000000E+00  0.00000000E+00  0.00000000E+00
  0.00000000E+00  0.00000000E+00  0.00000000E+00
  0.00000000E+00  0.00000000E+00  0.00000000E+00
  0.00000000E+00  0.00000000E+00  0.00000000E+00
  0.00000000E+00  0.00000000E+00  0.00000000E+00
  0.00000000E+00  0.00000000E+00  0.00000000E+00
  0.00000000E+00  0.00000000E+00  0.00000000E+00
  0.00000000E+00  0.00000000E+00  0.00000000E+00
  0.00000000E+00  0.00000000E+00  0.00000000E+00
  0.00000000E+00  0.00000000E+00  0.00000000E+00
  0.00000000E+00  0.00000000E+00  0.00000000E+00
  0.00000000E+00  0.00000000E+00  0.00000000E+00
  0.00000000E+00  0.00000000E+00  0.00000000E+00
  0.00000000E+00  0.00000000E+00  0.00000000E+00
  0.00000000E+00  0.00000000E+00  0.00000000E+00
  0.00000000E+00  0.00000000E+00  0.00000000E+00
  0.00000000E+00  0.00000000E+00  0.00000000E+00
  0.00000000E+00  0.00000000E+00  0.00000000E+00
  0.00000000E+00  0.00000000E+00  0.00000000E+00
  0.00000000E+00  0.00000000E+00  0.00000000E+00
  0.00000000E+00  0.00000000E+00  0.00000000E+00
  0.00000000E+00  0.00000000E+00  0.00000000E+00
  0.00000000E+00  0.00000000E+00  0.00000000E+00
  0.00000000E+00  0.00000000E+00  0.00000000E+00
  0.00000000E+00  0.00000000E+00  0.00000000E+00
  0.00000000E+00  0.00000000E+00  0.00000000E+00
  0.00000000E+00  0.00000000E+00  0.00000000E+00
  0.00000000E+00  0.00000000E+00  0.00000000E+00
  0.00000000E+00  0.00000000E+00  0.00000000E+00
  0.00000000E+00  0.00000000E+00  0.00000000E+00
  0.00000000E+00  0.00000000E+00  0.00000000E+00
  0.00000000E+00  0.00000000E+00  0.00000000E+00
  0.00000000E+00  0.00000000E+00  0.00000000E+00
