# Compound: Zn10W10O40. Old comment: O40
   1.00000000000000     
     5.7182516300000001    0.0000000000000000    0.0000000000000000
     0.0000000000000000    6.8209927766999998    0.0000000000000000
     0.0000000000000000    0.0000000000000000   33.7091034927000024
   Zn   W    O 
    10    10    40
Direct
  0.5765663962934001  0.6783222764576594  0.2567522320348631
  0.3321327028428591  0.9459510475955059  0.3078913695126140
  0.6616769236768361  0.2185443922105533  0.3745132491766492
  0.3231582507430310  0.4904970114786285  0.4273701121520284
  0.6778698420308097  0.7531875327471489  0.4753283763805935
  0.3221301579691897  0.0140721015528547  0.5246716236194066
  0.6768417492569690  0.2767626227213735  0.5726298878479714
  0.3383230763231644  0.5487152419894422  0.6254867508233504
  0.6678672971571415  0.8213085866044890  0.6921086304873854
  0.4234336037066010  0.0889373577423430  0.7432477679651369
  0.1855065165548073  0.4755609451258511  0.3290558936827819
  0.8160397239795967  0.2200401831362579  0.2785609832903752
  0.1807901304976230  0.9864236612638043  0.4241680616120075
  0.8111199797599777  0.7321330814888702  0.3736157944920992
  0.1780928514704879  0.5146823703957422  0.5257851072499520
  0.8219071485295130  0.2525772639042627  0.4742148927500482
  0.1888800202400227  0.0351265527111243  0.6263842055079002
  0.8192098695023771  0.7808359729361977  0.5758319383879931
  0.1839602760204035  0.5472194510637445  0.7214390167096243
  0.8144934834451920  0.2916986890741437  0.6709441063172189
  0.1029788075401631  0.7401235876203970  0.3330379742334760
  0.0858611661866937  0.2067349949462995  0.3098656090873594
  0.8414945736392204  0.0452776864403500  0.2422576111627940
  0.7883682626817160  0.4655608663954605  0.2586047688299090
  0.3356564285968129  0.4948979021500634  0.2840130659624709
  0.3885817656805093  0.8859590078914896  0.2551377697039743
  0.5901942329646298  0.1592893332365841  0.3140718437343133
  0.6075687484251577  0.7704327507285639  0.3353885272598575
  0.1043689684424056  0.2589973967242328  0.4344028342990755
  0.1071825966309251  0.7184118050998495  0.4135636985168024
  0.8809909192648749  0.4548238446759389  0.3589650009057783
  0.8900494084470507  0.9979320839339889  0.3834351537636841
  0.3742934959788427  0.0366062670189955  0.3841031265990308
  0.3880603538053334  0.4272483891167135  0.3678339578241925
  0.6288507822357577  0.6826198658065871  0.4160786753883957
  0.6243045028437478  0.2971276495853494  0.4334383642762057
  0.1069409928666084  0.7842913726893008  0.5356473477428296
  0.1050513142496260  0.2454813993906206  0.5150012801155817
  0.8930590071333920  0.9829682616106958  0.4643526522571702
  0.8949486857503740  0.5217782349093768  0.4849987198844177
  0.3768446301949999  0.5590365598153827  0.4848794451999808
  0.3754720872293033  0.9458119365125330  0.4655777944447875
  0.6231553698050002  0.2082230743846108  0.5151205548000189
  0.6245279127706966  0.8214476976874689  0.5344222055552129
  0.1190090807351245  0.3124357895240632  0.6410349990942216
  0.1099505915529491  0.7693275502660131  0.6165648462363156
  0.8956310315575943  0.5082622374757696  0.5655971657009247
  0.8928174033690746  0.0488478292001555  0.5864363014831977
  0.3711492177642423  0.0846397683934150  0.5839213246116043
  0.3756954971562515  0.4701319846146526  0.5665616357237949
  0.6257065040211572  0.7306533671810066  0.6158968734009691
  0.6119396461946665  0.3400112450832885  0.6321660421758081
  0.1585054263607790  0.7219819477596511  0.7577423888372055
  0.2116317373182845  0.3016987678045415  0.7413952311700908
  0.8970211924598376  0.0271360465796051  0.6669620257665245
  0.9141388338133065  0.5605246392537019  0.6901343909126400
  0.4098057670353704  0.6079703010634196  0.6859281562656885
  0.3924312515748420 -0.0031731164285603  0.6646114727401427
  0.6643435714031871  0.2723617321499333  0.7159869340375288
  0.6114182343194912  0.8813006264085070  0.7448622302960257
 
  0.00000000E+00  0.00000000E+00  0.00000000E+00
  0.00000000E+00  0.00000000E+00  0.00000000E+00
  0.00000000E+00  0.00000000E+00  0.00000000E+00
  0.00000000E+00  0.00000000E+00  0.00000000E+00
  0.00000000E+00  0.00000000E+00  0.00000000E+00
  0.00000000E+00  0.00000000E+00  0.00000000E+00
  0.00000000E+00  0.00000000E+00  0.00000000E+00
  0.00000000E+00  0.00000000E+00  0.00000000E+00
  0.00000000E+00  0.00000000E+00  0.00000000E+00
  0.00000000E+00  0.00000000E+00  0.00000000E+00
  0.00000000E+00  0.00000000E+00  0.00000000E+00
  0.00000000E+00  0.00000000E+00  0.00000000E+00
  0.00000000E+00  0.00000000E+00  0.00000000E+00
  0.00000000E+00  0.00000000E+00  0.00000000E+00
  0.00000000E+00  0.00000000E+00  0.00000000E+00
  0.00000000E+00  0.00000000E+00  0.00000000E+00
  0.00000000E+00  0.00000000E+00  0.00000000E+00
  0.00000000E+00  0.00000000E+00  0.00000000E+00
  0.00000000E+00  0.00000000E+00  0.00000000E+00
  0.00000000E+00  0.00000000E+00  0.00000000E+00
  0.00000000E+00  0.00000000E+00  0.00000000E+00
  0.00000000E+00  0.00000000E+00  0.00000000E+00
  0.00000000E+00  0.00000000E+00  0.00000000E+00
  0.00000000E+00  0.00000000E+00  0.00000000E+00
  0.00000000E+00  0.00000000E+00  0.00000000E+00
  0.00000000E+00  0.00000000E+00  0.00000000E+00
  0.00000000E+00  0.00000000E+00  0.00000000E+00
  0.00000000E+00  0.00000000E+00  0.00000000E+00
  0.00000000E+00  0.00000000E+00  0.00000000E+00
  0.00000000E+00  0.00000000E+00  0.00000000E+00
  0.00000000E+00  0.00000000E+00  0.00000000E+00
  0.00000000E+00  0.00000000E+00  0.00000000E+00
  0.00000000E+00  0.00000000E+00  0.00000000E+00
  0.00000000E+00  0.00000000E+00  0.00000000E+00
  0.00000000E+00  0.00000000E+00  0.00000000E+00
  0.00000000E+00  0.00000000E+00  0.00000000E+00
  0.00000000E+00  0.00000000E+00  0.00000000E+00
  0.00000000E+00  0.00000000E+00  0.00000000E+00
  0.00000000E+00  0.00000000E+00  0.00000000E+00
  0.00000000E+00  0.00000000E+00  0.00000000E+00
  0.00000000E+00  0.00000000E+00  0.00000000E+00
  0.00000000E+00  0.00000000E+00  0.00000000E+00
  0.00000000E+00  0.00000000E+00  0.00000000E+00
  0.00000000E+00  0.00000000E+00  0.00000000E+00
  0.00000000E+00  0.00000000E+00  0.00000000E+00
  0.00000000E+00  0.00000000E+00  0.00000000E+00
  0.00000000E+00  0.00000000E+00  0.00000000E+00
  0.00000000E+00  0.00000000E+00  0.00000000E+00
  0.00000000E+00  0.00000000E+00  0.00000000E+00
  0.00000000E+00  0.00000000E+00  0.00000000E+00
  0.00000000E+00  0.00000000E+00  0.00000000E+00
  0.00000000E+00  0.00000000E+00  0.00000000E+00
  0.00000000E+00  0.00000000E+00  0.00000000E+00
  0.00000000E+00  0.00000000E+00  0.00000000E+00
  0.00000000E+00  0.00000000E+00  0.00000000E+00
  0.00000000E+00  0.00000000E+00  0.00000000E+00
  0.00000000E+00  0.00000000E+00  0.00000000E+00
  0.00000000E+00  0.00000000E+00  0.00000000E+00
  0.00000000E+00  0.00000000E+00  0.00000000E+00
  0.00000000E+00  0.00000000E+00  0.00000000E+00
