Generated by VASPKIT code
 1.000000
   11.4365032600000003    0.0000000000000000    0.0000000000000000
    0.0000000000000000   13.6419855533999996    0.0000000000000000
    0.0000000000000000    0.0000000000000000   33.7091034927000024
   Zn   W    O 
    40    40   160
Direct
    0.2882831981467000    0.3391611382288298    0.2567522320348631    Zn001
    0.2882831981467000    0.8391611382288298    0.2567522320348631    Zn002
    0.7882831981467000    0.3391611382288298    0.2567522320348631    Zn003
    0.7882831981467000    0.8391611382288298    0.2567522320348631    Zn004
    0.1660663514214296    0.4729755237977529    0.3078913695126140    Zn005
    0.1660663514214296    0.9729755237977529    0.3078913695126140    Zn006
    0.6660663514214296    0.4729755237977529    0.3078913695126140    Zn007
    0.6660663514214296    0.9729755237977529    0.3078913695126140    Zn008
    0.3308384618384180    0.1092721961052766    0.3745132491766492    Zn009
    0.3308384618384180    0.6092721961052767    0.3745132491766492    Zn010
    0.8308384618384180    0.1092721961052766    0.3745132491766492    Zn011
    0.8308384618384180    0.6092721961052767    0.3745132491766492    Zn012
    0.1615791253715155    0.2452485057393142    0.4273701121520284    Zn013
    0.1615791253715155    0.7452485057393142    0.4273701121520284    Zn014
    0.6615791253715155    0.2452485057393142    0.4273701121520284    Zn015
    0.6615791253715155    0.7452485057393142    0.4273701121520284    Zn016
    0.3389349210154049    0.3765937663735744    0.4753283763805936    Zn017
    0.3389349210154049    0.8765937663735744    0.4753283763805936    Zn018
    0.8389349210154049    0.3765937663735744    0.4753283763805936    Zn019
    0.8389349210154049    0.8765937663735744    0.4753283763805936    Zn020
    0.1610650789845949    0.0070360507764273    0.5246716236194066    Zn021
    0.1610650789845949    0.5070360507764273    0.5246716236194066    Zn022
    0.6610650789845949    0.0070360507764273    0.5246716236194066    Zn023
    0.6610650789845949    0.5070360507764273    0.5246716236194066    Zn024
    0.3384208746284845    0.1383813113606868    0.5726298878479714    Zn025
    0.3384208746284845    0.6383813113606868    0.5726298878479714    Zn026
    0.8384208746284845    0.1383813113606868    0.5726298878479714    Zn027
    0.8384208746284845    0.6383813113606868    0.5726298878479714    Zn028
    0.1691615381615822    0.2743576209947212    0.6254867508233504    Zn029
    0.1691615381615822    0.7743576209947212    0.6254867508233504    Zn030
    0.6691615381615822    0.2743576209947212    0.6254867508233504    Zn031
    0.6691615381615822    0.7743576209947212    0.6254867508233504    Zn032
    0.3339336485785708    0.4106542933022446    0.6921086304873854    Zn033
    0.3339336485785708    0.9106542933022446    0.6921086304873854    Zn034
    0.8339336485785708    0.4106542933022446    0.6921086304873854    Zn035
    0.8339336485785708    0.9106542933022446    0.6921086304873854    Zn036
    0.2117168018533004    0.0444686788711715    0.7432477679651369    Zn037
    0.2117168018533004    0.5444686788711715    0.7432477679651369    Zn038
    0.7117168018533004    0.0444686788711715    0.7432477679651369    Zn039
    0.7117168018533004    0.5444686788711715    0.7432477679651369    Zn040
    0.0927532582774037    0.2377804725629256    0.3290558936827819     W001
    0.0927532582774037    0.7377804725629256    0.3290558936827819     W002
    0.5927532582774037    0.2377804725629256    0.3290558936827819     W003
    0.5927532582774037    0.7377804725629256    0.3290558936827819     W004
    0.4080198619897983    0.1100200915681290    0.2785609832903753     W005
    0.4080198619897983    0.6100200915681290    0.2785609832903753     W006
    0.9080198619897983    0.1100200915681290    0.2785609832903753     W007
    0.9080198619897983    0.6100200915681290    0.2785609832903753     W008
    0.0903950652488115    0.4932118306319022    0.4241680616120075     W009
    0.0903950652488115    0.9932118306319022    0.4241680616120075     W010
    0.5903950652488115    0.4932118306319022    0.4241680616120075     W011
    0.5903950652488115    0.9932118306319022    0.4241680616120075     W012
    0.4055599898799889    0.3660665407444351    0.3736157944920993     W013
    0.4055599898799889    0.8660665407444351    0.3736157944920993     W014
    0.9055599898799889    0.3660665407444351    0.3736157944920993     W015
    0.9055599898799889    0.8660665407444351    0.3736157944920993     W016
    0.0890464257352439    0.2573411851978711    0.5257851072499520     W017
    0.0890464257352439    0.7573411851978711    0.5257851072499520     W018
    0.5890464257352439    0.2573411851978711    0.5257851072499520     W019
    0.5890464257352439    0.7573411851978711    0.5257851072499520     W020
    0.4109535742647565    0.1262886319521314    0.4742148927500482     W021
    0.4109535742647565    0.6262886319521314    0.4742148927500482     W022
    0.9109535742647565    0.1262886319521314    0.4742148927500482     W023
    0.9109535742647565    0.6262886319521314    0.4742148927500482     W024
    0.0944400101200114    0.0175632763555621    0.6263842055079002     W025
    0.0944400101200114    0.5175632763555622    0.6263842055079002     W026
    0.5944400101200114    0.0175632763555621    0.6263842055079002     W027
    0.5944400101200114    0.5175632763555622    0.6263842055079002     W028
    0.4096049347511885    0.3904179864680988    0.5758319383879931     W029
    0.4096049347511885    0.8904179864680988    0.5758319383879931     W030
    0.9096049347511885    0.3904179864680988    0.5758319383879931     W031
    0.9096049347511885    0.8904179864680988    0.5758319383879931     W032
    0.0919801380102018    0.2736097255318722    0.7214390167096243     W033
    0.0919801380102018    0.7736097255318722    0.7214390167096243     W034
    0.5919801380102018    0.2736097255318722    0.7214390167096243     W035
    0.5919801380102018    0.7736097255318722    0.7214390167096243     W036
    0.4072467417225960    0.1458493445370719    0.6709441063172189     W037
    0.4072467417225960    0.6458493445370719    0.6709441063172189     W038
    0.9072467417225960    0.1458493445370719    0.6709441063172189     W039
    0.9072467417225960    0.6458493445370719    0.6709441063172189     W040
    0.0514894037700816    0.3700617938101984    0.3330379742334759     O001
    0.0514894037700816    0.8700617938101984    0.3330379742334759     O002
    0.5514894037700815    0.3700617938101984    0.3330379742334759     O003
    0.5514894037700815    0.8700617938101984    0.3330379742334759     O004
    0.0429305830933469    0.1033674974731498    0.3098656090873594     O005
    0.0429305830933469    0.6033674974731498    0.3098656090873594     O006
    0.5429305830933469    0.1033674974731498    0.3098656090873594     O007
    0.5429305830933469    0.6033674974731498    0.3098656090873594     O008
    0.4207472868196103    0.0226388432201750    0.2422576111627940     O009
    0.4207472868196103    0.5226388432201750    0.2422576111627940     O010
    0.9207472868196103    0.0226388432201750    0.2422576111627940     O011
    0.9207472868196103    0.5226388432201750    0.2422576111627940     O012
    0.3941841313408581    0.2327804331977302    0.2586047688299090     O013
    0.3941841313408581    0.7327804331977302    0.2586047688299090     O014
    0.8941841313408581    0.2327804331977302    0.2586047688299090     O015
    0.8941841313408581    0.7327804331977302    0.2586047688299090     O016
    0.1678282142984064    0.2474489510750317    0.2840130659624709     O017
    0.1678282142984064    0.7474489510750317    0.2840130659624709     O018
    0.6678282142984064    0.2474489510750317    0.2840130659624709     O019
    0.6678282142984064    0.7474489510750317    0.2840130659624709     O020
    0.1942908828402546    0.4429795039457448    0.2551377697039743     O021
    0.1942908828402546    0.9429795039457448    0.2551377697039743     O022
    0.6942908828402546    0.4429795039457448    0.2551377697039743     O023
    0.6942908828402546    0.9429795039457448    0.2551377697039743     O024
    0.2950971164823148    0.0796446666182921    0.3140718437343133     O025
    0.2950971164823148    0.5796446666182921    0.3140718437343133     O026
    0.7950971164823148    0.0796446666182921    0.3140718437343133     O027
    0.7950971164823148    0.5796446666182921    0.3140718437343133     O028
    0.3037843742125789    0.3852163753642819    0.3353885272598576     O029
    0.3037843742125789    0.8852163753642819    0.3353885272598576     O030
    0.8037843742125789    0.3852163753642819    0.3353885272598576     O031
    0.8037843742125789    0.8852163753642819    0.3353885272598576     O032
    0.0521844842212028    0.1294986983621164    0.4344028342990756     O033
    0.0521844842212028    0.6294986983621164    0.4344028342990756     O034
    0.5521844842212028    0.1294986983621164    0.4344028342990756     O035
    0.5521844842212028    0.6294986983621164    0.4344028342990756     O036
    0.0535912983154625    0.3592059025499248    0.4135636985168024     O037
    0.0535912983154625    0.8592059025499248    0.4135636985168024     O038
    0.5535912983154625    0.3592059025499248    0.4135636985168024     O039
    0.5535912983154625    0.8592059025499248    0.4135636985168024     O040
    0.4404954596324375    0.2274119223379695    0.3589650009057783     O041
    0.4404954596324375    0.7274119223379695    0.3589650009057783     O042
    0.9404954596324375    0.2274119223379695    0.3589650009057783     O043
    0.9404954596324375    0.7274119223379695    0.3589650009057783     O044
    0.4450247042235254    0.4989660419669945    0.3834351537636841     O045
    0.4450247042235254    0.9989660419669945    0.3834351537636841     O046
    0.9450247042235254    0.4989660419669945    0.3834351537636841     O047
    0.9450247042235254    0.9989660419669945    0.3834351537636841     O048
    0.1871467479894213    0.0183031335094977    0.3841031265990308     O049
    0.1871467479894213    0.5183031335094977    0.3841031265990308     O050
    0.6871467479894213    0.0183031335094977    0.3841031265990308     O051
    0.6871467479894213    0.5183031335094977    0.3841031265990308     O052
    0.1940301769026667    0.2136241945583568    0.3678339578241925     O053
    0.1940301769026667    0.7136241945583568    0.3678339578241925     O054
    0.6940301769026667    0.2136241945583568    0.3678339578241925     O055
    0.6940301769026667    0.7136241945583568    0.3678339578241925     O056
    0.3144253911178789    0.3413099329032936    0.4160786753883957     O057
    0.3144253911178789    0.8413099329032936    0.4160786753883957     O058
    0.8144253911178789    0.3413099329032936    0.4160786753883957     O059
    0.8144253911178789    0.8413099329032936    0.4160786753883957     O060
    0.3121522514218740    0.1485638247926747    0.4334383642762056     O061
    0.3121522514218740    0.6485638247926747    0.4334383642762056     O062
    0.8121522514218740    0.1485638247926747    0.4334383642762056     O063
    0.8121522514218740    0.6485638247926747    0.4334383642762056     O064
    0.0534704964333041    0.3921456863446504    0.5356473477428296     O065
    0.0534704964333041    0.8921456863446504    0.5356473477428296     O066
    0.5534704964333041    0.3921456863446504    0.5356473477428296     O067
    0.5534704964333041    0.8921456863446504    0.5356473477428296     O068
    0.0525256571248129    0.1227406996953103    0.5150012801155817     O069
    0.0525256571248129    0.6227406996953103    0.5150012801155817     O070
    0.5525256571248129    0.1227406996953103    0.5150012801155817     O071
    0.5525256571248129    0.6227406996953103    0.5150012801155817     O072
    0.4465295035666961    0.4914841308053479    0.4643526522571702     O073
    0.4465295035666961    0.9914841308053479    0.4643526522571702     O074
    0.9465295035666961    0.4914841308053479    0.4643526522571702     O075
    0.9465295035666961    0.9914841308053479    0.4643526522571702     O076
    0.4474743428751871    0.2608891174546883    0.4849987198844177     O077
    0.4474743428751871    0.7608891174546883    0.4849987198844177     O078
    0.9474743428751871    0.2608891174546883    0.4849987198844177     O079
    0.9474743428751871    0.7608891174546883    0.4849987198844177     O080
    0.1884223150975000    0.2795182799076914    0.4848794451999807     O081
    0.1884223150975000    0.7795182799076914    0.4848794451999807     O082
    0.6884223150975000    0.2795182799076914    0.4848794451999807     O083
    0.6884223150975000    0.7795182799076914    0.4848794451999807     O084
    0.1877360436146517    0.4729059682562665    0.4655777944447874     O085
    0.1877360436146517    0.9729059682562665    0.4655777944447874     O086
    0.6877360436146517    0.4729059682562665    0.4655777944447874     O087
    0.6877360436146517    0.9729059682562665    0.4655777944447874     O088
    0.3115776849025000    0.1041115371923054    0.5151205548000189     O089
    0.3115776849025000    0.6041115371923054    0.5151205548000189     O090
    0.8115776849025000    0.1041115371923054    0.5151205548000189     O091
    0.8115776849025000    0.6041115371923054    0.5151205548000189     O092
    0.3122639563853483    0.4107238488437345    0.5344222055552129     O093
    0.3122639563853483    0.9107238488437345    0.5344222055552129     O094
    0.8122639563853483    0.4107238488437345    0.5344222055552129     O095
    0.8122639563853483    0.9107238488437345    0.5344222055552129     O096
    0.0595045403675623    0.1562178947620316    0.6410349990942216     O097
    0.0595045403675623    0.6562178947620316    0.6410349990942216     O098
    0.5595045403675623    0.1562178947620316    0.6410349990942216     O099
    0.5595045403675623    0.6562178947620316    0.6410349990942216     O100
    0.0549752957764745    0.3846637751330065    0.6165648462363156     O101
    0.0549752957764745    0.8846637751330065    0.6165648462363156     O102
    0.5549752957764745    0.3846637751330065    0.6165648462363156     O103
    0.5549752957764745    0.8846637751330065    0.6165648462363156     O104
    0.4478155157787971    0.2541311187378847    0.5655971657009247     O105
    0.4478155157787971    0.7541311187378847    0.5655971657009247     O106
    0.9478155157787971    0.2541311187378847    0.5655971657009247     O107
    0.9478155157787971    0.7541311187378847    0.5655971657009247     O108
    0.4464087016845373    0.0244239146000778    0.5864363014831977     O109
    0.4464087016845373    0.5244239146000778    0.5864363014831977     O110
    0.9464087016845373    0.0244239146000778    0.5864363014831977     O111
    0.9464087016845373    0.5244239146000778    0.5864363014831977     O112
    0.1855746088821212    0.0423198841967075    0.5839213246116043     O113
    0.1855746088821212    0.5423198841967075    0.5839213246116043     O114
    0.6855746088821212    0.0423198841967075    0.5839213246116043     O115
    0.6855746088821212    0.5423198841967075    0.5839213246116043     O116
    0.1878477485781258    0.2350659923073263    0.5665616357237949     O117
    0.1878477485781258    0.7350659923073263    0.5665616357237949     O118
    0.6878477485781258    0.2350659923073263    0.5665616357237949     O119
    0.6878477485781258    0.7350659923073263    0.5665616357237949     O120
    0.3128532520105787    0.3653266835905034    0.6158968734009691     O121
    0.3128532520105787    0.8653266835905034    0.6158968734009691     O122
    0.8128532520105787    0.3653266835905034    0.6158968734009691     O123
    0.8128532520105787    0.8653266835905034    0.6158968734009691     O124
    0.3059698230973332    0.1700056225416442    0.6321660421758081     O125
    0.3059698230973332    0.6700056225416442    0.6321660421758081     O126
    0.8059698230973332    0.1700056225416442    0.6321660421758081     O127
    0.8059698230973332    0.6700056225416442    0.6321660421758081     O128
    0.0792527131803895    0.3609909738798256    0.7577423888372055     O129
    0.0792527131803895    0.8609909738798256    0.7577423888372055     O130
    0.5792527131803895    0.3609909738798256    0.7577423888372055     O131
    0.5792527131803895    0.8609909738798256    0.7577423888372055     O132
    0.1058158686591423    0.1508493839022708    0.7413952311700908     O133
    0.1058158686591423    0.6508493839022708    0.7413952311700908     O134
    0.6058158686591423    0.1508493839022708    0.7413952311700908     O135
    0.6058158686591423    0.6508493839022708    0.7413952311700908     O136
    0.4485105962299187    0.0135680232898026    0.6669620257665245     O137
    0.4485105962299187    0.5135680232898026    0.6669620257665245     O138
    0.9485105962299187    0.0135680232898026    0.6669620257665245     O139
    0.9485105962299187    0.5135680232898026    0.6669620257665245     O140
    0.4570694169066533    0.2802623196268510    0.6901343909126400     O141
    0.4570694169066533    0.7802623196268510    0.6901343909126400     O142
    0.9570694169066533    0.2802623196268510    0.6901343909126400     O143
    0.9570694169066533    0.7802623196268510    0.6901343909126400     O144
    0.2049028835176852    0.3039851505317098    0.6859281562656885     O145
    0.2049028835176852    0.8039851505317098    0.6859281562656885     O146
    0.7049028835176852    0.3039851505317098    0.6859281562656885     O147
    0.7049028835176852    0.8039851505317098    0.6859281562656885     O148
    0.1962156257874210    0.9984134417857198    0.6646114727401427     O149
    0.1962156257874210    0.4984134417857199    0.6646114727401427     O150
    0.6962156257874210    0.9984134417857198    0.6646114727401427     O151
    0.6962156257874210    0.4984134417857199    0.6646114727401427     O152
    0.3321717857015936    0.1361808660749666    0.7159869340375288     O153
    0.3321717857015936    0.6361808660749666    0.7159869340375288     O154
    0.8321717857015936    0.1361808660749666    0.7159869340375288     O155
    0.8321717857015936    0.6361808660749666    0.7159869340375288     O156
    0.3057091171597456    0.4406503132042535    0.7448622302960257     O157
    0.3057091171597456    0.9406503132042535    0.7448622302960257     O158
    0.8057091171597456    0.4406503132042535    0.7448622302960257     O159
    0.8057091171597456    0.9406503132042535    0.7448622302960257     O160
