# Compound: Zn6W6O20. Old comment: O20W6
   1.00000000000000     
     4.6673658500000004    0.0000000000000000    0.0000000000000000
    -0.0503960100000000    4.9263237300000000    0.0000000000000000
     0.0000000000000000    0.0000000000000000   34.3095097799999991
   Zn   W    O 
     6     6    20
Direct
  0.5000000000000000  0.2500000000000000  0.4000154233949938
  0.5000000000000000  0.7500000000000000  0.2893522933708179
  0.5000000000000000  0.2500000000000000  0.5642403577592078
  0.5000000000000000  0.7500000000000000  0.4527849933407945
  0.5000000000000000  0.2500000000000000  0.7276730576291826
  0.5000000000000000  0.7500000000000000  0.6170099277050015
 -0.0000000000000000  0.2500000000000000  0.3292229575222116
 -0.0000000000000000  0.7500000000000000  0.3691236353555685
 -0.0000000000000000  0.2500000000000000  0.4791200185123094
 -0.0000000000000000  0.7500000000000000  0.5379053324876912
 -0.0000000000000000  0.2500000000000000  0.6479017157444340
 -0.0000000000000000  0.7500000000000000  0.6878023935777844
  0.1998896659452381  0.9282753566138403  0.3204004943868508
  0.8001103340547614  0.5717246433861597  0.3204004943868508
  0.7105882866096318  0.0405151739405935  0.3537798198204644
  0.2894117133903677  0.4594848260594063  0.3537798198204644
  0.2185963564362189  0.9333739270539900  0.4908434909848263
  0.7814036435637809  0.5666260729460100  0.4908434909848263
  0.7814036435637809  0.0666260729460100  0.5261818601151763
  0.2185963564362189  0.4333739270539900  0.5261818601151763
  0.2558822602287927  0.4021220597773124  0.4457246145539090
  0.7441177397712071  0.0978779402226878  0.4457246145539090
  0.7454364478133106  0.5971026320509817  0.4042178780574503
  0.2545635521866895  0.9028973679490183  0.4042178780574503
  0.2894117133903676  0.9594848260594065  0.6632455311795368
  0.7105882866096318  0.5405151739405935  0.6632455311795368
  0.8001103340547614  0.0717246433861593  0.6966248567131448
  0.1998896659452381  0.4282753566138408  0.6966248567131448
  0.2545635521866895  0.4028973679490183  0.6128074730425518
  0.7454364478133106  0.0971026320509817  0.6128074730425518
  0.7441177397712071  0.5978779402226875  0.5713007364460845
  0.2558822602287927  0.9021220597773125  0.5713007364460845
 
  0.00000000E+00  0.00000000E+00  0.00000000E+00
  0.00000000E+00  0.00000000E+00  0.00000000E+00
  0.00000000E+00  0.00000000E+00  0.00000000E+00
  0.00000000E+00  0.00000000E+00  0.00000000E+00
  0.00000000E+00  0.00000000E+00  0.00000000E+00
  0.00000000E+00  0.00000000E+00  0.00000000E+00
  0.00000000E+00  0.00000000E+00  0.00000000E+00
  0.00000000E+00  0.00000000E+00  0.00000000E+00
  0.00000000E+00  0.00000000E+00  0.00000000E+00
  0.00000000E+00  0.00000000E+00  0.00000000E+00
  0.00000000E+00  0.00000000E+00  0.00000000E+00
  0.00000000E+00  0.00000000E+00  0.00000000E+00
  0.00000000E+00  0.00000000E+00  0.00000000E+00
  0.00000000E+00  0.00000000E+00  0.00000000E+00
  0.00000000E+00  0.00000000E+00  0.00000000E+00
  0.00000000E+00  0.00000000E+00  0.00000000E+00
  0.00000000E+00  0.00000000E+00  0.00000000E+00
  0.00000000E+00  0.00000000E+00  0.00000000E+00
  0.00000000E+00  0.00000000E+00  0.00000000E+00
  0.00000000E+00  0.00000000E+00  0.00000000E+00
  0.00000000E+00  0.00000000E+00  0.00000000E+00
  0.00000000E+00  0.00000000E+00  0.00000000E+00
  0.00000000E+00  0.00000000E+00  0.00000000E+00
  0.00000000E+00  0.00000000E+00  0.00000000E+00
  0.00000000E+00  0.00000000E+00  0.00000000E+00
  0.00000000E+00  0.00000000E+00  0.00000000E+00
  0.00000000E+00  0.00000000E+00  0.00000000E+00
  0.00000000E+00  0.00000000E+00  0.00000000E+00
  0.00000000E+00  0.00000000E+00  0.00000000E+00
  0.00000000E+00  0.00000000E+00  0.00000000E+00
  0.00000000E+00  0.00000000E+00  0.00000000E+00
  0.00000000E+00  0.00000000E+00  0.00000000E+00
