# Compound: Zn4W4O20. Old comment: O20W4
   1.00000000000000     
     4.6673658500000004    0.0000000000000000    0.0000000000000000
    -0.0503960100000000    4.9263237300000000    0.0000000000000000
     0.0000000000000000    0.0000000000000000   34.3095097799999991
   Zn   W    O 
     4     4    20
Direct
  0.5000000000000000  0.2500000000000000  0.3955170566926392
  0.5000000000000000  0.7500000000000000  0.2902072908882937
  0.5000000000000000  0.2500000000000000  0.5601513935117058
  0.5000000000000000  0.7500000000000000  0.4548416277073605
 -0.0000000000000000  0.2500000000000000  0.3103622016969553
 -0.0000000000000000  0.7500000000000000  0.3719496748873042
 -0.0000000000000000  0.2500000000000000  0.4784090095126955
 -0.0000000000000000  0.7500000000000000  0.5399964827030449
  0.2214953063128140  0.9344061806299540  0.3241874019734012
  0.7785046936871860  0.5655938193700460  0.3241874019734012
  0.7839668972609515  0.0646928885906852  0.3593082294314400
  0.2160331027390486  0.4353071114093149  0.3593082294314400
  0.2495505220260971  0.4089044785159277  0.2784289331326297
  0.7504494779739030  0.0910955214840722  0.2784289331326297
  0.6917129932510284  0.6647655300789563  0.2380603681023002
  0.3082870067489720  0.8352344699210437  0.2380603681023002
  0.2160331027390486  0.9353071114093144  0.4910504549685598
  0.7839668972609515  0.5646928885906856  0.4910504549685598
  0.7785046936871860  0.0655938193700461  0.5261712824265988
  0.2214953063128140  0.4344061806299540  0.5261712824265988
  0.2581755294437528  0.4030519382142140  0.4456991661828200
  0.7418244705562473  0.0969480617857860  0.4456991661828200
  0.7418244705562473  0.5969480617857860  0.4046595182171798
  0.2581755294437528  0.9030519382142140  0.4046595182171798
  0.3082870067489720  0.3352344699210439  0.6122983162977002
  0.6917129932510284  0.1647655300789561  0.6122983162977002
  0.7504494779739030  0.5910955214840723  0.5719297512673703
  0.2495505220260971  0.9089044785159277  0.5719297512673703
 
  0.00000000E+00  0.00000000E+00  0.00000000E+00
  0.00000000E+00  0.00000000E+00  0.00000000E+00
  0.00000000E+00  0.00000000E+00  0.00000000E+00
  0.00000000E+00  0.00000000E+00  0.00000000E+00
  0.00000000E+00  0.00000000E+00  0.00000000E+00
  0.00000000E+00  0.00000000E+00  0.00000000E+00
  0.00000000E+00  0.00000000E+00  0.00000000E+00
  0.00000000E+00  0.00000000E+00  0.00000000E+00
  0.00000000E+00  0.00000000E+00  0.00000000E+00
  0.00000000E+00  0.00000000E+00  0.00000000E+00
  0.00000000E+00  0.00000000E+00  0.00000000E+00
  0.00000000E+00  0.00000000E+00  0.00000000E+00
  0.00000000E+00  0.00000000E+00  0.00000000E+00
  0.00000000E+00  0.00000000E+00  0.00000000E+00
  0.00000000E+00  0.00000000E+00  0.00000000E+00
  0.00000000E+00  0.00000000E+00  0.00000000E+00
  0.00000000E+00  0.00000000E+00  0.00000000E+00
  0.00000000E+00  0.00000000E+00  0.00000000E+00
  0.00000000E+00  0.00000000E+00  0.00000000E+00
  0.00000000E+00  0.00000000E+00  0.00000000E+00
  0.00000000E+00  0.00000000E+00  0.00000000E+00
  0.00000000E+00  0.00000000E+00  0.00000000E+00
  0.00000000E+00  0.00000000E+00  0.00000000E+00
  0.00000000E+00  0.00000000E+00  0.00000000E+00
  0.00000000E+00  0.00000000E+00  0.00000000E+00
  0.00000000E+00  0.00000000E+00  0.00000000E+00
  0.00000000E+00  0.00000000E+00  0.00000000E+00
  0.00000000E+00  0.00000000E+00  0.00000000E+00
