# Compound: Zn6W6O24. Old comment: O24W6
   1.00000000000000     
     4.6673658500000004    0.0000000000000000    0.0000000000000000
    -0.0503960100000000    4.9263237300000000    0.0000000000000000
     0.0000000000000000    0.0000000000000000   34.3095097799999991
   Zn   W    O 
     6     6    24
Direct
  0.5000000000000000  0.2500000000000000  0.3865199957866172
  0.5000000000000000  0.7500000000000000  0.2849819446434651
  0.5000000000000000  0.2500000000000000  0.5539437528696430
  0.5000000000000000  0.7500000000000000  0.4460562471303568
  0.5000000000000000  0.2500000000000000  0.7150180553565352
  0.5000000000000000  0.7500000000000000  0.6134800042133828
 -0.0000000000000000  0.2500000000000000  0.3010871908393918
 -0.0000000000000000  0.7500000000000000  0.3634234535036015
 -0.0000000000000000  0.2500000000000000  0.4699081522944488
 -0.0000000000000000  0.7500000000000000  0.5300918477055513
 -0.0000000000000000  0.2500000000000000  0.6365765464963983
 -0.0000000000000000  0.7500000000000000  0.6989128091606083
  0.2208361274871114  0.9416748975746779  0.3159203600119528
  0.7791638725128885  0.5583251024253221  0.3159203600119528
  0.7831095933120362  0.0635523973895708  0.3502020136761981
  0.2168904066879640  0.4364476026104292  0.3502020136761981
  0.2449473448833265  0.4323516169624745  0.2699879344718504
  0.7550526551166736  0.0676483830375253  0.2699879344718504
  0.7421957269125616  0.5973096738140515  0.3960646107280541
  0.2578042730874385  0.9026903261859485  0.3960646107280541
  0.2172038263204628  0.9337827653061301  0.4823689807577111
  0.7827961736795374  0.5662172346938699  0.4823689807577111
  0.7827961736795374  0.0662172346938700  0.5176310192422892
  0.2172038263204628  0.4337827653061300  0.5176310192422892
  0.2578550764730117  0.4022770213872383  0.4371002244583124
  0.7421449235269885  0.0977229786127617  0.4371002244583124
  0.7421449235269885  0.5977229786127614  0.5628997755416880
  0.2578550764730117  0.9022770213872386  0.5628997755416880
  0.2168904066879640  0.9364476026104288  0.6497979863238017
  0.7831095933120362  0.5635523973895712  0.6497979863238017
  0.7791638725128885  0.0583251024253220  0.6840796399880470
  0.2208361274871114  0.4416748975746779  0.6840796399880470
  0.2578042730874385  0.4026903261859489  0.6039353892719459
  0.7421957269125616  0.0973096738140512  0.6039353892719459
  0.7550526551166736  0.5676483830375253  0.7300120655281497
  0.2449473448833265  0.9323516169624747  0.7300120655281497
 
  0.00000000E+00  0.00000000E+00  0.00000000E+00
  0.00000000E+00  0.00000000E+00  0.00000000E+00
  0.00000000E+00  0.00000000E+00  0.00000000E+00
  0.00000000E+00  0.00000000E+00  0.00000000E+00
  0.00000000E+00  0.00000000E+00  0.00000000E+00
  0.00000000E+00  0.00000000E+00  0.00000000E+00
  0.00000000E+00  0.00000000E+00  0.00000000E+00
  0.00000000E+00  0.00000000E+00  0.00000000E+00
  0.00000000E+00  0.00000000E+00  0.00000000E+00
  0.00000000E+00  0.00000000E+00  0.00000000E+00
  0.00000000E+00  0.00000000E+00  0.00000000E+00
  0.00000000E+00  0.00000000E+00  0.00000000E+00
  0.00000000E+00  0.00000000E+00  0.00000000E+00
  0.00000000E+00  0.00000000E+00  0.00000000E+00
  0.00000000E+00  0.00000000E+00  0.00000000E+00
  0.00000000E+00  0.00000000E+00  0.00000000E+00
  0.00000000E+00  0.00000000E+00  0.00000000E+00
  0.00000000E+00  0.00000000E+00  0.00000000E+00
  0.00000000E+00  0.00000000E+00  0.00000000E+00
  0.00000000E+00  0.00000000E+00  0.00000000E+00
  0.00000000E+00  0.00000000E+00  0.00000000E+00
  0.00000000E+00  0.00000000E+00  0.00000000E+00
  0.00000000E+00  0.00000000E+00  0.00000000E+00
  0.00000000E+00  0.00000000E+00  0.00000000E+00
  0.00000000E+00  0.00000000E+00  0.00000000E+00
  0.00000000E+00  0.00000000E+00  0.00000000E+00
  0.00000000E+00  0.00000000E+00  0.00000000E+00
  0.00000000E+00  0.00000000E+00  0.00000000E+00
  0.00000000E+00  0.00000000E+00  0.00000000E+00
  0.00000000E+00  0.00000000E+00  0.00000000E+00
  0.00000000E+00  0.00000000E+00  0.00000000E+00
  0.00000000E+00  0.00000000E+00  0.00000000E+00
  0.00000000E+00  0.00000000E+00  0.00000000E+00
  0.00000000E+00  0.00000000E+00  0.00000000E+00
  0.00000000E+00  0.00000000E+00  0.00000000E+00
  0.00000000E+00  0.00000000E+00  0.00000000E+00
