# Compound: Zn6W6O24. Old comment: O24W6
   1.00000000000000     
     4.6673658500000004    0.0000000000000000    0.0000000000000000
    -0.0503960100000000    4.9263237300000000    0.0000000000000000
     0.0000000000000000    0.0000000000000000   34.3095097799999991
   Zn   W    O 
     6     6    24
Direct
  0.5000000000000000  0.2500000000000000  0.2954395151307283
  0.5000000000000000  0.7500000000000000  0.3638850815411607
  0.5000000000000000  0.2500000000000000  0.4703492814608358
  0.5000000000000000  0.7500000000000000  0.5296507185391641
  0.5000000000000000  0.2500000000000000  0.6361149184588395
  0.5000000000000000  0.7500000000000000  0.7045604848692717
  0.0000000000000000  0.2500000000000000  0.3860667260627814
  0.0000000000000000  0.7500000000000000  0.2882186193574433
  0.0000000000000000  0.2500000000000000  0.5531925217018905
  0.0000000000000000  0.7500000000000000  0.4468074782981099
  0.0000000000000000  0.2500000000000000  0.7117813806425561
  0.0000000000000000  0.7500000000000000  0.6139332739372191
  0.2217061948270061  0.9395313636010310  0.3995687134036239
  0.7782938051729940  0.5604686363989690  0.3995687134036239
  0.8004408288495105 -0.0046247011443297  0.2618093012008801
  0.1995591711504894  0.5046247011443299  0.2618093012008801
  0.2408342264294678  0.4223982644397636  0.3528807854171032
  0.7591657735705323  0.0776017355602366  0.3528807854171032
  0.7244816354503845  0.5588521229757898  0.3142577530877703
  0.2755183645496158  0.9411478770242102  0.3142577530877703
  0.2181749625086023  0.9352924894762943  0.5660081945380987
  0.7818250374913980  0.5647075105237057  0.5660081945380987
  0.7818250374913980  0.0647075105237057  0.4339918054619014
  0.2181749625086023  0.4352924894762942  0.4339918054619014
  0.2572352356686247  0.4023271620968292  0.5203718620801309
  0.7427647643313754  0.0976728379031709  0.5203718620801309
  0.7427647643313754  0.5976728379031706  0.4796281379198695
  0.2572352356686247  0.9023271620968294  0.4796281379198695
  0.1995591711504894  0.0046247011443297  0.7381906987991201
  0.8004408288495105  0.4953752988556704  0.7381906987991201
  0.7782938051729940  0.0604686363989691  0.6004312865963758
  0.2217061948270061  0.4395313636010308  0.6004312865963758
  0.2755183645496158  0.4411478770242101  0.6857422469122295
  0.7244816354503845  0.0588521229757898  0.6857422469122295
  0.7591657735705323  0.5776017355602368  0.6471192145828969
  0.2408342264294678  0.9223982644397632  0.6471192145828969
 
  0.00000000E+00  0.00000000E+00  0.00000000E+00
  0.00000000E+00  0.00000000E+00  0.00000000E+00
  0.00000000E+00  0.00000000E+00  0.00000000E+00
  0.00000000E+00  0.00000000E+00  0.00000000E+00
  0.00000000E+00  0.00000000E+00  0.00000000E+00
  0.00000000E+00  0.00000000E+00  0.00000000E+00
  0.00000000E+00  0.00000000E+00  0.00000000E+00
  0.00000000E+00  0.00000000E+00  0.00000000E+00
  0.00000000E+00  0.00000000E+00  0.00000000E+00
  0.00000000E+00  0.00000000E+00  0.00000000E+00
  0.00000000E+00  0.00000000E+00  0.00000000E+00
  0.00000000E+00  0.00000000E+00  0.00000000E+00
  0.00000000E+00  0.00000000E+00  0.00000000E+00
  0.00000000E+00  0.00000000E+00  0.00000000E+00
  0.00000000E+00  0.00000000E+00  0.00000000E+00
  0.00000000E+00  0.00000000E+00  0.00000000E+00
  0.00000000E+00  0.00000000E+00  0.00000000E+00
  0.00000000E+00  0.00000000E+00  0.00000000E+00
  0.00000000E+00  0.00000000E+00  0.00000000E+00
  0.00000000E+00  0.00000000E+00  0.00000000E+00
  0.00000000E+00  0.00000000E+00  0.00000000E+00
  0.00000000E+00  0.00000000E+00  0.00000000E+00
  0.00000000E+00  0.00000000E+00  0.00000000E+00
  0.00000000E+00  0.00000000E+00  0.00000000E+00
  0.00000000E+00  0.00000000E+00  0.00000000E+00
  0.00000000E+00  0.00000000E+00  0.00000000E+00
  0.00000000E+00  0.00000000E+00  0.00000000E+00
  0.00000000E+00  0.00000000E+00  0.00000000E+00
  0.00000000E+00  0.00000000E+00  0.00000000E+00
  0.00000000E+00  0.00000000E+00  0.00000000E+00
  0.00000000E+00  0.00000000E+00  0.00000000E+00
  0.00000000E+00  0.00000000E+00  0.00000000E+00
  0.00000000E+00  0.00000000E+00  0.00000000E+00
  0.00000000E+00  0.00000000E+00  0.00000000E+00
  0.00000000E+00  0.00000000E+00  0.00000000E+00
  0.00000000E+00  0.00000000E+00  0.00000000E+00
