# Compound: Zn6W4O20. Old comment: O20W4
   1.00000000000000     
     4.6673658500000004    0.0000000000000000    0.0000000000000000
    -0.0503960100000000    4.9263237300000000    0.0000000000000000
     0.0000000000000000    0.0000000000000000   34.3095097799999991
   Zn   W    O 
     6     4    20
Direct
  0.5000000000000000  0.2500000000000000  0.2523994708986315
  0.5000000000000000  0.7500000000000000  0.3010394606753335
  0.5000000000000000  0.2500000000000000  0.4139997836014957
  0.5000000000000000  0.7500000000000000  0.4711605553985065
  0.5000000000000000  0.2500000000000000  0.5841208784246708
  0.5000000000000000  0.7500000000000000  0.6327608682013653
 -0.0000000000000000  0.2500000000000000  0.3304091489548701
 -0.0000000000000000  0.7500000000000000  0.3886055743771279
 -0.0000000000000000  0.2500000000000000  0.4965547647228761
 -0.0000000000000000  0.7500000000000000  0.5547511901451266
  0.2215061972340737  0.9309937183654218  0.3409390997659035
  0.7784938027659265  0.5690062816345782  0.3409390997659035
  0.7830359547036813  0.0679358960574814  0.3774193126187512
  0.2169640452963189  0.4320641039425184  0.3774193126187512
  0.2485166764196442  0.4050587924819790  0.2970857700003863
  0.7514833235803559  0.0949412075180210  0.2970857700003863
  0.6572891300332833  0.5988653293311751  0.2489495326477663
  0.3427108699667168  0.9011346706688249  0.2489495326477663
  0.2169640452963189  0.9320641039425186  0.5077410264812527
  0.7830359547036813  0.5679358960574814  0.5077410264812527
  0.7784938027659265  0.0690062816345784  0.5442212392340986
  0.2215061972340737  0.4309937183654216  0.5442212392340986
  0.2576305495796861  0.4018820316909105  0.4635897331887862
  0.7423694504203142  0.0981179683090895  0.4635897331887862
  0.7423694504203142  0.5981179683090897  0.4215706059112107
  0.2576305495796861  0.9018820316909103  0.4215706059112107
  0.3427108699667168  0.4011346706688246  0.6362108063522359
  0.6572891300332833  0.0988653293311753  0.6362108063522359
  0.7514833235803559  0.5949412075180213  0.5880745690996108
  0.2485166764196442  0.9050587924819787  0.5880745690996108
 
  0.00000000E+00  0.00000000E+00  0.00000000E+00
  0.00000000E+00  0.00000000E+00  0.00000000E+00
  0.00000000E+00  0.00000000E+00  0.00000000E+00
  0.00000000E+00  0.00000000E+00  0.00000000E+00
  0.00000000E+00  0.00000000E+00  0.00000000E+00
  0.00000000E+00  0.00000000E+00  0.00000000E+00
  0.00000000E+00  0.00000000E+00  0.00000000E+00
  0.00000000E+00  0.00000000E+00  0.00000000E+00
  0.00000000E+00  0.00000000E+00  0.00000000E+00
  0.00000000E+00  0.00000000E+00  0.00000000E+00
  0.00000000E+00  0.00000000E+00  0.00000000E+00
  0.00000000E+00  0.00000000E+00  0.00000000E+00
  0.00000000E+00  0.00000000E+00  0.00000000E+00
  0.00000000E+00  0.00000000E+00  0.00000000E+00
  0.00000000E+00  0.00000000E+00  0.00000000E+00
  0.00000000E+00  0.00000000E+00  0.00000000E+00
  0.00000000E+00  0.00000000E+00  0.00000000E+00
  0.00000000E+00  0.00000000E+00  0.00000000E+00
  0.00000000E+00  0.00000000E+00  0.00000000E+00
  0.00000000E+00  0.00000000E+00  0.00000000E+00
  0.00000000E+00  0.00000000E+00  0.00000000E+00
  0.00000000E+00  0.00000000E+00  0.00000000E+00
  0.00000000E+00  0.00000000E+00  0.00000000E+00
  0.00000000E+00  0.00000000E+00  0.00000000E+00
  0.00000000E+00  0.00000000E+00  0.00000000E+00
  0.00000000E+00  0.00000000E+00  0.00000000E+00
  0.00000000E+00  0.00000000E+00  0.00000000E+00
  0.00000000E+00  0.00000000E+00  0.00000000E+00
  0.00000000E+00  0.00000000E+00  0.00000000E+00
  0.00000000E+00  0.00000000E+00  0.00000000E+00
