# Compound: Zn6W6O20. Old comment: O20W6
   1.00000000000000     
     4.6673658500000004    0.0000000000000000    0.0000000000000000
    -0.0503960100000000    4.9263237300000000    0.0000000000000000
     0.0000000000000000    0.0000000000000000   34.3095097799999991
   Zn   W    O 
     6     6    20
Direct
  0.5000000000000000  0.2500000000000000  0.2959768221910087
  0.5000000000000000  0.7500000000000000  0.3536884015141982
  0.5000000000000000  0.2500000000000000  0.4622821619209060
  0.5000000000000000  0.7500000000000000  0.5206924870790929
  0.5000000000000000  0.2500000000000000  0.6292862473858063
  0.5000000000000000  0.7500000000000000  0.6869978267089895
 -0.0000000000000000  0.2500000000000000  0.3783461111021064
 -0.0000000000000000  0.7500000000000000  0.2762252395440832
 -0.0000000000000000  0.2500000000000000  0.5450203507054685
 -0.0000000000000000  0.7500000000000000  0.4379542981945357
 -0.0000000000000000  0.2500000000000000  0.7067494094559155
 -0.0000000000000000  0.7500000000000000  0.6046285377978908
  0.2191825197746767  0.9342274740703667  0.3902571218442100
  0.7808174802253235  0.5657725259296333  0.3902571218442100
  0.7825622423961484  0.0662982858191852  0.4257842529856575
  0.2174377576038513  0.4337017141808150  0.4257842529856575
  0.2508343059013074  0.4106870123340490  0.3450445263500534
  0.7491656940986923  0.0893129876659509  0.3450445263500534
  0.7095080132052013  0.5749846973121450  0.2998783802865763
  0.2904919867947989  0.9250153026878550  0.2998783802865763
  0.2174377576038513  0.9337017141808148  0.5571903959143473
  0.7825622423961484  0.5662982858191852  0.5571903959143473
  0.7808174802253235  0.0657725259296336  0.5927175271557894
  0.2191825197746767  0.4342274740703663  0.5927175271557894
  0.2576920598285271  0.4025707268999871  0.5122086618353706
  0.7423079401714731  0.0974292731000128  0.5122086618353706
  0.7423079401714731  0.5974292731000130  0.4707659870646269
  0.2576920598285271  0.9025707268999870  0.4707659870646269
  0.2904919867947989  0.4250153026878550  0.6830962687134300
  0.7095080132052013  0.0749846973121451  0.6830962687134300
  0.7491656940986923  0.5893129876659507  0.6379301225499437
  0.2508343059013074  0.9106870123340493  0.6379301225499437
 
  0.00000000E+00  0.00000000E+00  0.00000000E+00
  0.00000000E+00  0.00000000E+00  0.00000000E+00
  0.00000000E+00  0.00000000E+00  0.00000000E+00
  0.00000000E+00  0.00000000E+00  0.00000000E+00
  0.00000000E+00  0.00000000E+00  0.00000000E+00
  0.00000000E+00  0.00000000E+00  0.00000000E+00
  0.00000000E+00  0.00000000E+00  0.00000000E+00
  0.00000000E+00  0.00000000E+00  0.00000000E+00
  0.00000000E+00  0.00000000E+00  0.00000000E+00
  0.00000000E+00  0.00000000E+00  0.00000000E+00
  0.00000000E+00  0.00000000E+00  0.00000000E+00
  0.00000000E+00  0.00000000E+00  0.00000000E+00
  0.00000000E+00  0.00000000E+00  0.00000000E+00
  0.00000000E+00  0.00000000E+00  0.00000000E+00
  0.00000000E+00  0.00000000E+00  0.00000000E+00
  0.00000000E+00  0.00000000E+00  0.00000000E+00
  0.00000000E+00  0.00000000E+00  0.00000000E+00
  0.00000000E+00  0.00000000E+00  0.00000000E+00
  0.00000000E+00  0.00000000E+00  0.00000000E+00
  0.00000000E+00  0.00000000E+00  0.00000000E+00
  0.00000000E+00  0.00000000E+00  0.00000000E+00
  0.00000000E+00  0.00000000E+00  0.00000000E+00
  0.00000000E+00  0.00000000E+00  0.00000000E+00
  0.00000000E+00  0.00000000E+00  0.00000000E+00
  0.00000000E+00  0.00000000E+00  0.00000000E+00
  0.00000000E+00  0.00000000E+00  0.00000000E+00
  0.00000000E+00  0.00000000E+00  0.00000000E+00
  0.00000000E+00  0.00000000E+00  0.00000000E+00
  0.00000000E+00  0.00000000E+00  0.00000000E+00
  0.00000000E+00  0.00000000E+00  0.00000000E+00
  0.00000000E+00  0.00000000E+00  0.00000000E+00
  0.00000000E+00  0.00000000E+00  0.00000000E+00
