# Compound: Zn4W6O20. Old comment: O20W6
   1.00000000000000     
     4.6673658500000004    0.0000000000000000    0.0000000000000000
    -0.0503960100000000    4.9263237300000000    0.0000000000000000
     0.0000000000000000    0.0000000000000000   34.3095097799999991
   Zn   W    O 
     4     6    20
Direct
  0.5000000000000000  0.2500000000000000  0.4184138517373837
  0.5000000000000000  0.7500000000000000  0.4696513194487261
  0.5000000000000000  0.2500000000000000  0.5821756862512787
  0.5000000000000000  0.7500000000000000  0.6334131539626148
  0.0000000000000000  0.2500000000000000  0.3463780427404163
  0.0000000000000000  0.7500000000000000  0.3851126460491375
  0.0000000000000000  0.2500000000000000  0.4967747050134705
  0.0000000000000000  0.7500000000000000  0.5550523007865293
  0.0000000000000000  0.2500000000000000  0.6667143596508609
  0.0000000000000000  0.7500000000000000  0.7054489629595815
  0.1849080173979175  0.9318051838480951  0.3350952623957547
  0.8150919826020826  0.5681948161519049  0.3350952623957547
  0.7230157120752292  0.0525788222338451  0.3747015350734694
  0.2769842879247704  0.4474211777661550  0.3747015350734694
  0.2184128683889899  0.9325673637103374  0.5080245908444311
  0.7815871316110103  0.5674326362896626  0.5080245908444311
  0.7815871316110103  0.0674326362896625  0.5438024148555741
  0.2184128683889899  0.4325673637103375  0.5438024148555741
  0.2569405536712034  0.4036430409793606  0.4636114564242524
  0.7430594463287972  0.0963569590206393  0.4636114564242524
  0.7487628236404850  0.5955689997589105  0.4203849661275756
  0.2512371763595151  0.9044310002410895  0.4203849661275756
  0.2769842879247704  0.9474211777661546  0.6771254707265307
  0.7230157120752292  0.5525788222338454  0.6771254707265307
  0.8150919826020826  0.0681948161519050  0.7167317433042434
  0.1849080173979175  0.4318051838480950  0.7167317433042434
  0.2512371763595151  0.4044310002410891  0.6314420395724228
  0.7487628236404850  0.0955689997589108  0.6314420395724228
  0.7430594463287972  0.5963569590206398  0.5882155493757474
  0.2569405536712034  0.9036430409793602  0.5882155493757474
 
  0.00000000E+00  0.00000000E+00  0.00000000E+00
  0.00000000E+00  0.00000000E+00  0.00000000E+00
  0.00000000E+00  0.00000000E+00  0.00000000E+00
  0.00000000E+00  0.00000000E+00  0.00000000E+00
  0.00000000E+00  0.00000000E+00  0.00000000E+00
  0.00000000E+00  0.00000000E+00  0.00000000E+00
  0.00000000E+00  0.00000000E+00  0.00000000E+00
  0.00000000E+00  0.00000000E+00  0.00000000E+00
  0.00000000E+00  0.00000000E+00  0.00000000E+00
  0.00000000E+00  0.00000000E+00  0.00000000E+00
  0.00000000E+00  0.00000000E+00  0.00000000E+00
  0.00000000E+00  0.00000000E+00  0.00000000E+00
  0.00000000E+00  0.00000000E+00  0.00000000E+00
  0.00000000E+00  0.00000000E+00  0.00000000E+00
  0.00000000E+00  0.00000000E+00  0.00000000E+00
  0.00000000E+00  0.00000000E+00  0.00000000E+00
  0.00000000E+00  0.00000000E+00  0.00000000E+00
  0.00000000E+00  0.00000000E+00  0.00000000E+00
  0.00000000E+00  0.00000000E+00  0.00000000E+00
  0.00000000E+00  0.00000000E+00  0.00000000E+00
  0.00000000E+00  0.00000000E+00  0.00000000E+00
  0.00000000E+00  0.00000000E+00  0.00000000E+00
  0.00000000E+00  0.00000000E+00  0.00000000E+00
  0.00000000E+00  0.00000000E+00  0.00000000E+00
  0.00000000E+00  0.00000000E+00  0.00000000E+00
  0.00000000E+00  0.00000000E+00  0.00000000E+00
  0.00000000E+00  0.00000000E+00  0.00000000E+00
  0.00000000E+00  0.00000000E+00  0.00000000E+00
  0.00000000E+00  0.00000000E+00  0.00000000E+00
  0.00000000E+00  0.00000000E+00  0.00000000E+00
