# Compound: Zn4W4O20. Old comment: O20W4
   1.00000000000000     
     4.6673658500000004    0.0000000000000000    0.0000000000000000
    -0.0503960100000000    4.9263237300000000    0.0000000000000000
     0.0000000000000000    0.0000000000000000   34.3095097799999991
   Zn   W    O 
     4     4    20
Direct
  0.5000000000000000  0.2500000000000000  0.4535627992718397
  0.5000000000000000  0.7500000000000000  0.5222797345333364
  0.5000000000000000  0.2500000000000000  0.6273615810666638
  0.5000000000000000  0.7500000000000000  0.6960785163281602
 -0.0000000000000000  0.2500000000000000  0.5440647853484881
 -0.0000000000000000  0.7500000000000000  0.4465746456333973
 -0.0000000000000000  0.2500000000000000  0.7030666699666029
 -0.0000000000000000  0.7500000000000000  0.6055765302515121
  0.0996661657123610  0.8321788778792006  0.3352692239224830
  0.9003338342876394  0.6678211221207994  0.3352692239224830
  0.8004822064693312 -0.0044412266791081  0.4201422914872053
  0.1995177935306686  0.5044412266791080  0.4201422914872053
  0.2228613741173854  0.9415996093761552  0.5580526793522929
  0.7771386258826141  0.5584003906238448  0.5580526793522929
  0.7771386258826141  0.0584003906238453  0.5915886362477074
  0.2228613741173854  0.4415996093761544  0.5915886362477074
  0.2396077618394480  0.4226598551182163  0.5107834238202197
  0.7603922381605518  0.0773401448817834  0.5107834238202197
  0.7239589907510110  0.5591349271500359  0.4725980283833440
  0.2760410092489889  0.9408650728499641  0.4725980283833441
  0.1995177935306686  0.0044412266791079  0.7294990241127944
  0.8004822064693312  0.4955587733208922  0.7294990241127944
  0.9003338342876394  0.1678211221207989  0.8143720916775170
  0.0996661657123610  0.3321788778792011  0.8143720916775170
  0.2760410092489889  0.4408650728499643  0.6770432872166573
  0.7239589907510110  0.0591349271500360  0.6770432872166573
  0.7603922381605518  0.5773401448817829  0.6388578917797806
  0.2396077618394480  0.9226598551182171  0.6388578917797806
 
  0.00000000E+00  0.00000000E+00  0.00000000E+00
  0.00000000E+00  0.00000000E+00  0.00000000E+00
  0.00000000E+00  0.00000000E+00  0.00000000E+00
  0.00000000E+00  0.00000000E+00  0.00000000E+00
  0.00000000E+00  0.00000000E+00  0.00000000E+00
  0.00000000E+00  0.00000000E+00  0.00000000E+00
  0.00000000E+00  0.00000000E+00  0.00000000E+00
  0.00000000E+00  0.00000000E+00  0.00000000E+00
  0.00000000E+00  0.00000000E+00  0.00000000E+00
  0.00000000E+00  0.00000000E+00  0.00000000E+00
  0.00000000E+00  0.00000000E+00  0.00000000E+00
  0.00000000E+00  0.00000000E+00  0.00000000E+00
  0.00000000E+00  0.00000000E+00  0.00000000E+00
  0.00000000E+00  0.00000000E+00  0.00000000E+00
  0.00000000E+00  0.00000000E+00  0.00000000E+00
  0.00000000E+00  0.00000000E+00  0.00000000E+00
  0.00000000E+00  0.00000000E+00  0.00000000E+00
  0.00000000E+00  0.00000000E+00  0.00000000E+00
  0.00000000E+00  0.00000000E+00  0.00000000E+00
  0.00000000E+00  0.00000000E+00  0.00000000E+00
  0.00000000E+00  0.00000000E+00  0.00000000E+00
  0.00000000E+00  0.00000000E+00  0.00000000E+00
  0.00000000E+00  0.00000000E+00  0.00000000E+00
  0.00000000E+00  0.00000000E+00  0.00000000E+00
  0.00000000E+00  0.00000000E+00  0.00000000E+00
  0.00000000E+00  0.00000000E+00  0.00000000E+00
  0.00000000E+00  0.00000000E+00  0.00000000E+00
  0.00000000E+00  0.00000000E+00  0.00000000E+00
