Generated by VASPKIT code
 1.000000
    9.3347317000000007    0.0000000000000000    0.0000000000000000
   -0.1007920200000000    9.8526474600000000    0.0000000000000000
    0.0000000000000000    0.0000000000000000   34.3095097799999991
   Zn   W    O 
    16    24    80
Direct
    0.2500000000000000    0.1250000000000000    0.4184138517373837    Zn001
    0.2500000000000000    0.6250000000000000    0.4184138517373837    Zn002
    0.7500000000000000    0.1250000000000000    0.4184138517373837    Zn003
    0.7500000000000000    0.6250000000000000    0.4184138517373837    Zn004
    0.2500000000000000    0.3750000000000000    0.4696513194487262    Zn005
    0.2500000000000000    0.8750000000000000    0.4696513194487262    Zn006
    0.7500000000000000    0.3750000000000000    0.4696513194487262    Zn007
    0.7500000000000000    0.8750000000000000    0.4696513194487262    Zn008
    0.2500000000000000    0.1250000000000000    0.5821756862512787    Zn009
    0.2500000000000000    0.6250000000000000    0.5821756862512787    Zn010
    0.7500000000000000    0.1250000000000000    0.5821756862512787    Zn011
    0.7500000000000000    0.6250000000000000    0.5821756862512787    Zn012
    0.2500000000000000    0.3750000000000000    0.6334131539626148    Zn013
    0.2500000000000000    0.8750000000000000    0.6334131539626148    Zn014
    0.7500000000000000    0.3750000000000000    0.6334131539626148    Zn015
    0.7500000000000000    0.8750000000000000    0.6334131539626148    Zn016
    0.0000000000000000    0.1250000000000000    0.3463780427404163     W001
    0.0000000000000000    0.6250000000000000    0.3463780427404163     W002
    0.5000000000000000    0.1250000000000000    0.3463780427404163     W003
    0.5000000000000000    0.6250000000000000    0.3463780427404163     W004
    0.0000000000000000    0.3750000000000000    0.3851126460491374     W005
    0.0000000000000000    0.8750000000000000    0.3851126460491374     W006
    0.5000000000000000    0.3750000000000000    0.3851126460491374     W007
    0.5000000000000000    0.8750000000000000    0.3851126460491374     W008
    0.0000000000000000    0.1250000000000000    0.4967747050134705     W009
    0.0000000000000000    0.6250000000000000    0.4967747050134705     W010
    0.5000000000000000    0.1250000000000000    0.4967747050134705     W011
    0.5000000000000000    0.6250000000000000    0.4967747050134705     W012
    0.0000000000000000    0.3750000000000000    0.5550523007865293     W013
    0.0000000000000000    0.8750000000000000    0.5550523007865293     W014
    0.5000000000000000    0.3750000000000000    0.5550523007865293     W015
    0.5000000000000000    0.8750000000000000    0.5550523007865293     W016
    0.0000000000000000    0.1250000000000000    0.6667143596508609     W017
    0.0000000000000000    0.6250000000000000    0.6667143596508609     W018
    0.5000000000000000    0.1250000000000000    0.6667143596508609     W019
    0.5000000000000000    0.6250000000000000    0.6667143596508609     W020
    0.0000000000000000    0.3750000000000000    0.7054489629595815     W021
    0.0000000000000000    0.8750000000000000    0.7054489629595815     W022
    0.5000000000000000    0.3750000000000000    0.7054489629595815     W023
    0.5000000000000000    0.8750000000000000    0.7054489629595815     W024
    0.0924540086989587    0.4659025919240476    0.3350952623957547     O001
    0.0924540086989587    0.9659025919240476    0.3350952623957547     O002
    0.5924540086989587    0.4659025919240476    0.3350952623957547     O003
    0.5924540086989587    0.9659025919240476    0.3350952623957547     O004
    0.4075459913010413    0.2840974080759524    0.3350952623957547     O005
    0.4075459913010413    0.7840974080759524    0.3350952623957547     O006
    0.9075459913010413    0.2840974080759524    0.3350952623957547     O007
    0.9075459913010413    0.7840974080759524    0.3350952623957547     O008
    0.3615078560376146    0.0262894111169225    0.3747015350734695     O009
    0.3615078560376146    0.5262894111169225    0.3747015350734695     O010
    0.8615078560376146    0.0262894111169225    0.3747015350734695     O011
    0.8615078560376146    0.5262894111169225    0.3747015350734695     O012
    0.1384921439623852    0.2237105888830775    0.3747015350734695     O013
    0.1384921439623852    0.7237105888830775    0.3747015350734695     O014
    0.6384921439623852    0.2237105888830775    0.3747015350734695     O015
    0.6384921439623852    0.7237105888830775    0.3747015350734695     O016
    0.1092064341944949    0.4662836818551688    0.5080245908444311     O017
    0.1092064341944949    0.9662836818551688    0.5080245908444311     O018
    0.6092064341944949    0.4662836818551688    0.5080245908444311     O019
    0.6092064341944949    0.9662836818551688    0.5080245908444311     O020
    0.3907935658055052    0.2837163181448312    0.5080245908444311     O021
    0.3907935658055052    0.7837163181448312    0.5080245908444311     O022
    0.8907935658055052    0.2837163181448312    0.5080245908444311     O023
    0.8907935658055052    0.7837163181448312    0.5080245908444311     O024
    0.3907935658055052    0.0337163181448312    0.5438024148555741     O025
    0.3907935658055052    0.5337163181448312    0.5438024148555741     O026
    0.8907935658055052    0.0337163181448312    0.5438024148555741     O027
    0.8907935658055052    0.5337163181448312    0.5438024148555741     O028
    0.1092064341944949    0.2162836818551688    0.5438024148555741     O029
    0.1092064341944949    0.7162836818551688    0.5438024148555741     O030
    0.6092064341944949    0.2162836818551688    0.5438024148555741     O031
    0.6092064341944949    0.7162836818551688    0.5438024148555741     O032
    0.1284702768356016    0.2018215204896803    0.4636114564242524     O033
    0.1284702768356016    0.7018215204896803    0.4636114564242524     O034
    0.6284702768356016    0.2018215204896803    0.4636114564242524     O035
    0.6284702768356016    0.7018215204896803    0.4636114564242524     O036
    0.3715297231643986    0.0481784795103196    0.4636114564242524     O037
    0.3715297231643986    0.5481784795103197    0.4636114564242524     O038
    0.8715297231643986    0.0481784795103196    0.4636114564242524     O039
    0.8715297231643986    0.5481784795103197    0.4636114564242524     O040
    0.3743814118202424    0.2977844998794552    0.4203849661275756     O041
    0.3743814118202424    0.7977844998794552    0.4203849661275756     O042
    0.8743814118202424    0.2977844998794552    0.4203849661275756     O043
    0.8743814118202424    0.7977844998794552    0.4203849661275756     O044
    0.1256185881797576    0.4522155001205448    0.4203849661275756     O045
    0.1256185881797576    0.9522155001205448    0.4203849661275756     O046
    0.6256185881797576    0.4522155001205448    0.4203849661275756     O047
    0.6256185881797576    0.9522155001205448    0.4203849661275756     O048
    0.1384921439623852    0.4737105888830773    0.6771254707265307     O049
    0.1384921439623852    0.9737105888830773    0.6771254707265307     O050
    0.6384921439623852    0.4737105888830773    0.6771254707265307     O051
    0.6384921439623852    0.9737105888830773    0.6771254707265307     O052
    0.3615078560376146    0.2762894111169227    0.6771254707265307     O053
    0.3615078560376146    0.7762894111169227    0.6771254707265307     O054
    0.8615078560376146    0.2762894111169227    0.6771254707265307     O055
    0.8615078560376146    0.7762894111169227    0.6771254707265307     O056
    0.4075459913010413    0.0340974080759525    0.7167317433042434     O057
    0.4075459913010413    0.5340974080759525    0.7167317433042434     O058
    0.9075459913010413    0.0340974080759525    0.7167317433042434     O059
    0.9075459913010413    0.5340974080759525    0.7167317433042434     O060
    0.0924540086989587    0.2159025919240475    0.7167317433042434     O061
    0.0924540086989587    0.7159025919240475    0.7167317433042434     O062
    0.5924540086989587    0.2159025919240475    0.7167317433042434     O063
    0.5924540086989587    0.7159025919240475    0.7167317433042434     O064
    0.1256185881797576    0.2022155001205446    0.6314420395724228     O065
    0.1256185881797576    0.7022155001205446    0.6314420395724228     O066
    0.6256185881797576    0.2022155001205446    0.6314420395724228     O067
    0.6256185881797576    0.7022155001205446    0.6314420395724228     O068
    0.3743814118202424    0.0477844998794554    0.6314420395724228     O069
    0.3743814118202424    0.5477844998794554    0.6314420395724228     O070
    0.8743814118202424    0.0477844998794554    0.6314420395724228     O071
    0.8743814118202424    0.5477844998794554    0.6314420395724228     O072
    0.3715297231643986    0.2981784795103199    0.5882155493757474     O073
    0.3715297231643986    0.7981784795103199    0.5882155493757474     O074
    0.8715297231643986    0.2981784795103199    0.5882155493757474     O075
    0.8715297231643986    0.7981784795103199    0.5882155493757474     O076
    0.1284702768356016    0.4518215204896801    0.5882155493757474     O077
    0.1284702768356016    0.9518215204896801    0.5882155493757474     O078
    0.6284702768356016    0.4518215204896801    0.5882155493757474     O079
    0.6284702768356016    0.9518215204896801    0.5882155493757474     O080
