Generated by VASPKIT code
 1.000000
    9.3347317000000007    0.0000000000000000    0.0000000000000000
   -0.1007920200000000    9.8526474600000000    0.0000000000000000
    0.0000000000000000    0.0000000000000000   34.3095097799999991
   Zn   W    O 
    24    24    96
Direct
    0.2500000000000000    0.1250000000000000    0.3865199957866172    Zn001
    0.2500000000000000    0.6250000000000000    0.3865199957866172    Zn002
    0.7500000000000000    0.1250000000000000    0.3865199957866172    Zn003
    0.7500000000000000    0.6250000000000000    0.3865199957866172    Zn004
    0.2500000000000000    0.3750000000000000    0.2849819446434652    Zn005
    0.2500000000000000    0.8750000000000000    0.2849819446434652    Zn006
    0.7500000000000000    0.3750000000000000    0.2849819446434652    Zn007
    0.7500000000000000    0.8750000000000000    0.2849819446434652    Zn008
    0.2500000000000000    0.1250000000000000    0.5539437528696430    Zn009
    0.2500000000000000    0.6250000000000000    0.5539437528696430    Zn010
    0.7500000000000000    0.1250000000000000    0.5539437528696430    Zn011
    0.7500000000000000    0.6250000000000000    0.5539437528696430    Zn012
    0.2500000000000000    0.3750000000000000    0.4460562471303569    Zn013
    0.2500000000000000    0.8750000000000000    0.4460562471303569    Zn014
    0.7500000000000000    0.3750000000000000    0.4460562471303569    Zn015
    0.7500000000000000    0.8750000000000000    0.4460562471303569    Zn016
    0.2500000000000000    0.1250000000000000    0.7150180553565352    Zn017
    0.2500000000000000    0.6250000000000000    0.7150180553565352    Zn018
    0.7500000000000000    0.1250000000000000    0.7150180553565352    Zn019
    0.7500000000000000    0.6250000000000000    0.7150180553565352    Zn020
    0.2500000000000000    0.3750000000000000    0.6134800042133828    Zn021
    0.2500000000000000    0.8750000000000000    0.6134800042133828    Zn022
    0.7500000000000000    0.3750000000000000    0.6134800042133828    Zn023
    0.7500000000000000    0.8750000000000000    0.6134800042133828    Zn024
    0.0000000000000000    0.1250000000000000    0.3010871908393917     W001
    0.0000000000000000    0.6250000000000000    0.3010871908393917     W002
    0.5000000000000000    0.1250000000000000    0.3010871908393917     W003
    0.5000000000000000    0.6250000000000000    0.3010871908393917     W004
    0.0000000000000000    0.3750000000000000    0.3634234535036015     W005
    0.0000000000000000    0.8750000000000000    0.3634234535036015     W006
    0.5000000000000000    0.3750000000000000    0.3634234535036015     W007
    0.5000000000000000    0.8750000000000000    0.3634234535036015     W008
    0.0000000000000000    0.1250000000000000    0.4699081522944488     W009
    0.0000000000000000    0.6250000000000000    0.4699081522944488     W010
    0.5000000000000000    0.1250000000000000    0.4699081522944488     W011
    0.5000000000000000    0.6250000000000000    0.4699081522944488     W012
    0.0000000000000000    0.3750000000000000    0.5300918477055513     W013
    0.0000000000000000    0.8750000000000000    0.5300918477055513     W014
    0.5000000000000000    0.3750000000000000    0.5300918477055513     W015
    0.5000000000000000    0.8750000000000000    0.5300918477055513     W016
    0.0000000000000000    0.1250000000000000    0.6365765464963983     W017
    0.0000000000000000    0.6250000000000000    0.6365765464963983     W018
    0.5000000000000000    0.1250000000000000    0.6365765464963983     W019
    0.5000000000000000    0.6250000000000000    0.6365765464963983     W020
    0.0000000000000000    0.3750000000000000    0.6989128091606083     W021
    0.0000000000000000    0.8750000000000000    0.6989128091606083     W022
    0.5000000000000000    0.3750000000000000    0.6989128091606083     W023
    0.5000000000000000    0.8750000000000000    0.6989128091606083     W024
    0.1104180637435557    0.4708374487873390    0.3159203600119528     O001
    0.1104180637435557    0.9708374487873390    0.3159203600119528     O002
    0.6104180637435557    0.4708374487873390    0.3159203600119528     O003
    0.6104180637435557    0.9708374487873390    0.3159203600119528     O004
    0.3895819362564443    0.2791625512126610    0.3159203600119528     O005
    0.3895819362564443    0.7791625512126610    0.3159203600119528     O006
    0.8895819362564443    0.2791625512126610    0.3159203600119528     O007
    0.8895819362564443    0.7791625512126610    0.3159203600119528     O008
    0.3915547966560181    0.0317761986947854    0.3502020136761981     O009
    0.3915547966560181    0.5317761986947854    0.3502020136761981     O010
    0.8915547966560181    0.0317761986947854    0.3502020136761981     O011
    0.8915547966560181    0.5317761986947854    0.3502020136761981     O012
    0.1084452033439820    0.2182238013052146    0.3502020136761981     O013
    0.1084452033439820    0.7182238013052146    0.3502020136761981     O014
    0.6084452033439820    0.2182238013052146    0.3502020136761981     O015
    0.6084452033439820    0.7182238013052146    0.3502020136761981     O016
    0.1224736724416633    0.2161758084812373    0.2699879344718503     O017
    0.1224736724416633    0.7161758084812373    0.2699879344718503     O018
    0.6224736724416633    0.2161758084812373    0.2699879344718503     O019
    0.6224736724416633    0.7161758084812373    0.2699879344718503     O020
    0.3775263275583368    0.0338241915187627    0.2699879344718503     O021
    0.3775263275583368    0.5338241915187627    0.2699879344718503     O022
    0.8775263275583368    0.0338241915187627    0.2699879344718503     O023
    0.8775263275583368    0.5338241915187627    0.2699879344718503     O024
    0.3710978634562808    0.2986548369070258    0.3960646107280541     O025
    0.3710978634562808    0.7986548369070258    0.3960646107280541     O026
    0.8710978634562808    0.2986548369070258    0.3960646107280541     O027
    0.8710978634562808    0.7986548369070258    0.3960646107280541     O028
    0.1289021365437193    0.4513451630929742    0.3960646107280541     O029
    0.1289021365437193    0.9513451630929742    0.3960646107280541     O030
    0.6289021365437193    0.4513451630929742    0.3960646107280541     O031
    0.6289021365437193    0.9513451630929742    0.3960646107280541     O032
    0.1086019131602314    0.4668913826530651    0.4823689807577112     O033
    0.1086019131602314    0.9668913826530651    0.4823689807577112     O034
    0.6086019131602314    0.4668913826530651    0.4823689807577112     O035
    0.6086019131602314    0.9668913826530651    0.4823689807577112     O036
    0.3913980868397686    0.2831086173469349    0.4823689807577112     O037
    0.3913980868397686    0.7831086173469349    0.4823689807577112     O038
    0.8913980868397686    0.2831086173469349    0.4823689807577112     O039
    0.8913980868397686    0.7831086173469349    0.4823689807577112     O040
    0.3913980868397686    0.0331086173469350    0.5176310192422892     O041
    0.3913980868397686    0.5331086173469350    0.5176310192422892     O042
    0.8913980868397686    0.0331086173469350    0.5176310192422892     O043
    0.8913980868397686    0.5331086173469350    0.5176310192422892     O044
    0.1086019131602314    0.2168913826530650    0.5176310192422892     O045
    0.1086019131602314    0.7168913826530650    0.5176310192422892     O046
    0.6086019131602314    0.2168913826530650    0.5176310192422892     O047
    0.6086019131602314    0.7168913826530650    0.5176310192422892     O048
    0.1289275382365058    0.2011385106936192    0.4371002244583124     O049
    0.1289275382365058    0.7011385106936192    0.4371002244583124     O050
    0.6289275382365058    0.2011385106936192    0.4371002244583124     O051
    0.6289275382365058    0.7011385106936192    0.4371002244583124     O052
    0.3710724617634942    0.0488614893063809    0.4371002244583124     O053
    0.3710724617634942    0.5488614893063808    0.4371002244583124     O054
    0.8710724617634942    0.0488614893063809    0.4371002244583124     O055
    0.8710724617634942    0.5488614893063808    0.4371002244583124     O056
    0.3710724617634942    0.2988614893063807    0.5628997755416880     O057
    0.3710724617634942    0.7988614893063807    0.5628997755416880     O058
    0.8710724617634942    0.2988614893063807    0.5628997755416880     O059
    0.8710724617634942    0.7988614893063807    0.5628997755416880     O060
    0.1289275382365058    0.4511385106936193    0.5628997755416880     O061
    0.1289275382365058    0.9511385106936193    0.5628997755416880     O062
    0.6289275382365058    0.4511385106936193    0.5628997755416880     O063
    0.6289275382365058    0.9511385106936193    0.5628997755416880     O064
    0.1084452033439820    0.4682238013052145    0.6497979863238017     O065
    0.1084452033439820    0.9682238013052145    0.6497979863238017     O066
    0.6084452033439820    0.4682238013052145    0.6497979863238017     O067
    0.6084452033439820    0.9682238013052145    0.6497979863238017     O068
    0.3915547966560181    0.2817761986947855    0.6497979863238017     O069
    0.3915547966560181    0.7817761986947855    0.6497979863238017     O070
    0.8915547966560181    0.2817761986947855    0.6497979863238017     O071
    0.8915547966560181    0.7817761986947855    0.6497979863238017     O072
    0.3895819362564443    0.0291625512126610    0.6840796399880470     O073
    0.3895819362564443    0.5291625512126610    0.6840796399880470     O074
    0.8895819362564443    0.0291625512126610    0.6840796399880470     O075
    0.8895819362564443    0.5291625512126610    0.6840796399880470     O076
    0.1104180637435557    0.2208374487873390    0.6840796399880470     O077
    0.1104180637435557    0.7208374487873390    0.6840796399880470     O078
    0.6104180637435557    0.2208374487873390    0.6840796399880470     O079
    0.6104180637435557    0.7208374487873390    0.6840796399880470     O080
    0.1289021365437193    0.2013451630929745    0.6039353892719459     O081
    0.1289021365437193    0.7013451630929745    0.6039353892719459     O082
    0.6289021365437193    0.2013451630929745    0.6039353892719459     O083
    0.6289021365437193    0.7013451630929745    0.6039353892719459     O084
    0.3710978634562808    0.0486548369070257    0.6039353892719459     O085
    0.3710978634562808    0.5486548369070257    0.6039353892719459     O086
    0.8710978634562808    0.0486548369070257    0.6039353892719459     O087
    0.8710978634562808    0.5486548369070257    0.6039353892719459     O088
    0.3775263275583368    0.2838241915187627    0.7300120655281497     O089
    0.3775263275583368    0.7838241915187627    0.7300120655281497     O090
    0.8775263275583368    0.2838241915187627    0.7300120655281497     O091
    0.8775263275583368    0.7838241915187627    0.7300120655281497     O092
    0.1224736724416633    0.4661758084812373    0.7300120655281497     O093
    0.1224736724416633    0.9661758084812373    0.7300120655281497     O094
    0.6224736724416633    0.4661758084812373    0.7300120655281497     O095
    0.6224736724416633    0.9661758084812373    0.7300120655281497     O096
