# Compound: Zn12W12O44. Old comment: O44
   1.00000000000000     
     7.3812401181000000    0.0000000000000000    0.0000000000000000
     2.9831735916000000    6.1340539435999997    0.0000000000000000
     0.0000000000000000    0.0000000000000000   34.8467577425999977
   Zn   W    O 
    12    12    44
Direct
  0.3537157364279907  0.3606118795488549  0.2964175839616169
  0.1131026586683151  0.9203984030394762  0.3022804736851507
  0.2228960318510340  0.1155946344321901  0.3746702082188366
  0.8379820566623865  0.5619837991777310  0.3864988291700341
  0.9648779205934923  0.7665932596278013  0.4560414048689422
  0.5797501257120825  0.2102941887555662  0.4678499899168936
  0.7065352825879134  0.4155996252444351  0.5406626855831077
  0.3214074877065110  0.8593005543721928  0.5524712707310527
  0.4483033517376111  0.0639100148222699  0.6220138463299665
  0.0633893765489637  0.5102991795678111  0.6338424672811643
  0.1731827496316880  0.7054954109605250  0.7062322019148441
  0.9325696719720139  0.2652819344511463  0.7120950915383840
  0.9696912548472086  0.4642953855999447  0.2918560382733733
  0.6492219482140639  0.8596125845545685  0.3024023685616460
  0.7298602754284476  0.1191056678519949  0.3708257189102251
  0.3317595988621169  0.5636421654203000  0.3852072797765883
  0.4692313407637271  0.7638430096226917  0.4567623167311332
  0.0729668516025880  0.2132933130641906  0.4691630127456091
  0.2133185567974097  0.4126005009358104  0.5393496627543909
  0.8170540675362756  0.8620508043773095  0.5517503588688608
  0.9545258094378865  0.0622516485796940  0.6233053957234116
  0.5564251328715484  0.5067881461480066  0.6376869565897757
  0.6370634600859321  0.7662812294454326  0.7061103070383493
  0.3165941535527885  0.1615984284000566  0.7166566372266271
  0.9385883569533282  0.7834149312744935  0.2898553586232289
  0.0079290452125217  0.2015373818838666  0.2743242993541755
  0.7166132756010306  0.6373007009976884  0.2649019840494962
  0.6211829548586205  0.1616722522523587  0.3148570630325342
  0.6469799924833105  0.4235986734588329  0.3745112469363971
  0.7041999940592224  0.8513765750136753  0.3582519636252153
  0.4101964897100400  0.2557922156304807  0.3810578001761087
  0.3620760471449933  0.8219006454484826  0.3989650362675312
  0.9863958565559395  0.0387181888785417  0.3555294136987456
  0.0232492298447967  0.3961007523249909  0.3422350142378853
  0.3861829675657035  0.9167717395636980  0.3093835399181495
  0.2879918215522447  0.6213700707252831  0.3351103875836283
  0.3891325907559939  0.0711269109062616  0.4586154331410946
  0.4431703847995369  0.5070224207345141  0.4421131220460120
  0.1539925462716397  0.9058563128139246  0.4662488380122577
  0.1022803225658212  0.4703403653974187  0.4829620980650531
  0.7212744147880246  0.6870380578879445  0.4392058935568440
  0.7618385115173398  0.0554917388503777  0.4216891355701455
  0.0806993170866384  0.6414938965652974  0.4037067899712708
  0.0308751397098281  0.2763487885980426  0.4187242717204928
  0.1322928620283633  0.7200375011860695  0.5422638374877425
  0.1840050857341748  0.1555534485025808  0.5255505775349492
  0.8971528175440091  0.5547669030937401  0.5498972424588996
  0.8431150236004605  0.1188713932654876  0.5663995534539820
  0.4650908274085003  0.3355999766035160  0.5217696046054141
  0.5089326356486055  0.7032020732073334  0.5074106999587634
  0.8211945808915027  0.2902938372964835  0.4867430708945860
  0.7773527726513905  0.9226917407926607  0.5011019756412388
  0.8760889186899581  0.3701015983695206  0.6274548753238922
  0.9242093611550098  0.8039931685515186  0.6095476392324704
  0.6393054158166925  0.2022951404411666  0.6340014285636039
  0.5820854142407805  0.7745172389863260  0.6502607118747851
  0.2055860912133647  0.9843999174347038  0.6048058855287226
  0.2554102685901751  0.3495450253019568  0.5897884037795074
  0.5650109936119803  0.9388557561120567  0.5693067820431579
  0.5244468968826579  0.5704020751496233  0.5868235399298545
  0.5696721326989724 -0.0114068869976869  0.7436106915504981
  0.6651024534413754  0.4642215617476356  0.6936556124674589
  0.3476970514466691  0.8424788827255077  0.7186573168767721
  0.2783563630874745  0.4243564321161347  0.7341883762458258
  0.9001024408342952  0.7091220744362962  0.6991291356818526
 -0.0017064131522473  0.0045237432747183  0.6734022879163720
  0.2998895518440584  0.5871756251214524  0.6529832618012469
  0.2630361785552010  0.2297930616750102  0.6662776612621151
 
  0.00000000E+00  0.00000000E+00  0.00000000E+00
  0.00000000E+00  0.00000000E+00  0.00000000E+00
  0.00000000E+00  0.00000000E+00  0.00000000E+00
  0.00000000E+00  0.00000000E+00  0.00000000E+00
  0.00000000E+00  0.00000000E+00  0.00000000E+00
  0.00000000E+00  0.00000000E+00  0.00000000E+00
  0.00000000E+00  0.00000000E+00  0.00000000E+00
  0.00000000E+00  0.00000000E+00  0.00000000E+00
  0.00000000E+00  0.00000000E+00  0.00000000E+00
  0.00000000E+00  0.00000000E+00  0.00000000E+00
  0.00000000E+00  0.00000000E+00  0.00000000E+00
  0.00000000E+00  0.00000000E+00  0.00000000E+00
  0.00000000E+00  0.00000000E+00  0.00000000E+00
  0.00000000E+00  0.00000000E+00  0.00000000E+00
  0.00000000E+00  0.00000000E+00  0.00000000E+00
  0.00000000E+00  0.00000000E+00  0.00000000E+00
  0.00000000E+00  0.00000000E+00  0.00000000E+00
  0.00000000E+00  0.00000000E+00  0.00000000E+00
  0.00000000E+00  0.00000000E+00  0.00000000E+00
  0.00000000E+00  0.00000000E+00  0.00000000E+00
  0.00000000E+00  0.00000000E+00  0.00000000E+00
  0.00000000E+00  0.00000000E+00  0.00000000E+00
  0.00000000E+00  0.00000000E+00  0.00000000E+00
  0.00000000E+00  0.00000000E+00  0.00000000E+00
  0.00000000E+00  0.00000000E+00  0.00000000E+00
  0.00000000E+00  0.00000000E+00  0.00000000E+00
  0.00000000E+00  0.00000000E+00  0.00000000E+00
  0.00000000E+00  0.00000000E+00  0.00000000E+00
  0.00000000E+00  0.00000000E+00  0.00000000E+00
  0.00000000E+00  0.00000000E+00  0.00000000E+00
  0.00000000E+00  0.00000000E+00  0.00000000E+00
  0.00000000E+00  0.00000000E+00  0.00000000E+00
  0.00000000E+00  0.00000000E+00  0.00000000E+00
  0.00000000E+00  0.00000000E+00  0.00000000E+00
  0.00000000E+00  0.00000000E+00  0.00000000E+00
  0.00000000E+00  0.00000000E+00  0.00000000E+00
  0.00000000E+00  0.00000000E+00  0.00000000E+00
  0.00000000E+00  0.00000000E+00  0.00000000E+00
  0.00000000E+00  0.00000000E+00  0.00000000E+00
  0.00000000E+00  0.00000000E+00  0.00000000E+00
  0.00000000E+00  0.00000000E+00  0.00000000E+00
  0.00000000E+00  0.00000000E+00  0.00000000E+00
  0.00000000E+00  0.00000000E+00  0.00000000E+00
  0.00000000E+00  0.00000000E+00  0.00000000E+00
  0.00000000E+00  0.00000000E+00  0.00000000E+00
  0.00000000E+00  0.00000000E+00  0.00000000E+00
  0.00000000E+00  0.00000000E+00  0.00000000E+00
  0.00000000E+00  0.00000000E+00  0.00000000E+00
  0.00000000E+00  0.00000000E+00  0.00000000E+00
  0.00000000E+00  0.00000000E+00  0.00000000E+00
  0.00000000E+00  0.00000000E+00  0.00000000E+00
  0.00000000E+00  0.00000000E+00  0.00000000E+00
  0.00000000E+00  0.00000000E+00  0.00000000E+00
  0.00000000E+00  0.00000000E+00  0.00000000E+00
  0.00000000E+00  0.00000000E+00  0.00000000E+00
  0.00000000E+00  0.00000000E+00  0.00000000E+00
  0.00000000E+00  0.00000000E+00  0.00000000E+00
  0.00000000E+00  0.00000000E+00  0.00000000E+00
  0.00000000E+00  0.00000000E+00  0.00000000E+00
  0.00000000E+00  0.00000000E+00  0.00000000E+00
  0.00000000E+00  0.00000000E+00  0.00000000E+00
  0.00000000E+00  0.00000000E+00  0.00000000E+00
  0.00000000E+00  0.00000000E+00  0.00000000E+00
  0.00000000E+00  0.00000000E+00  0.00000000E+00
  0.00000000E+00  0.00000000E+00  0.00000000E+00
  0.00000000E+00  0.00000000E+00  0.00000000E+00
  0.00000000E+00  0.00000000E+00  0.00000000E+00
  0.00000000E+00  0.00000000E+00  0.00000000E+00
