# Compound: Zn10W10O46. Old comment: O46
   1.00000000000000     
     7.3812401181000000    0.0000000000000000    0.0000000000000000
     2.9831735916000000    6.1340539435999997    0.0000000000000000
     0.0000000000000000    0.0000000000000000   34.8467577425999977
   Zn   W    O 
    10    10    46
Direct
  0.4419641161225258  0.4264581493645944  0.2938951249477408
  0.0589631015438757  0.8711079708436075  0.3026671157179121
  0.1947447564042784  0.0726487229528872  0.3735595877792465
  0.8007700910786647  0.5247216438383371  0.3871935175941483
  0.9359715433060881  0.7242206570986078  0.4584162822082918
  0.5481724447939132  0.1724750717013899  0.4710193976917110
  0.6833738970213367  0.3719740849616670  0.5422421624058555
  0.2893992316957232  0.8240470058471108  0.5558760921207490
  0.4251808865561256  0.0255877580563918  0.6267685641820840
  0.0421798720774774  0.4702375794354031  0.6355405550522639
  0.9517151793184175  0.4229903487988166  0.2923828947799946
  0.5534531689613227  0.8896730770014563  0.2995394121424186
  0.6955178369038632  0.0709543828107852  0.3757589132452264
  0.3017212304655288  0.5247191245139962  0.3878141724073028
  0.4394002917525821  0.7237507711965080  0.4592044086752787
  0.0447436963474122  0.1729449576034959  0.4702312712247170
  0.1824227576344725  0.3719766042860010  0.5416215075927022
  0.7886261511961382  0.8257413460892139  0.5536767666547771
  0.9306908191386787  0.0070226517985411  0.6298962677575840
  0.5324288087815838  0.4737053800011809  0.6370527852200094
  0.8610050056618525  0.7432780734356583  0.2922266127998833
  0.9455996901953984  0.1648020963820268  0.2784453983860921
  0.6362554561464899  0.5686402552596289  0.3023101813036962
  0.7632130771873116  0.4765659201396044  0.2451882923811128
  0.1898463333508581  0.3825545829119075  0.2728369091657887
  0.2574022843818568  0.6724613359486045  0.2607250657807151
  0.5113801152608352  0.4043613361733741  0.2381799578127112
  0.4915364444874746  0.9411731333224590  0.2519340764079974
  0.6140787941151598  0.3828965543326403  0.3771909190049795
  0.6648128968866771  0.8234942749723985  0.3614024027549649
  0.3819059696661728  0.2165727626329672  0.3849265973722862
  0.5813572666767416  0.1407985443169650  0.3165406512386433
  0.9441295367290018  0.9985562846305893  0.3563354126312122
 -0.0055116005929522  0.3703590093871821  0.3433788797532344
  0.3049964200071318  0.9489228312233685  0.3206854990745347
  0.2580835761745796  0.5874471819041500  0.3371389547182664
  0.3598022715895705  0.0308969970791345  0.4608707246957330
  0.4105337177682885  0.4672049158671699  0.4446029756418794
  0.1243417165104310  0.8657987318208643  0.4685649552042627
  0.3292594459925208  0.7809755750073580  0.4018256468711738
  0.6905759145782802  0.6453906223924204  0.4408653741509836
  0.7401545517007380  0.0152532272877247  0.4263276324739341
  0.0498065893150860  0.6014227736767993  0.4054891751209369
  0.0053039216272768  0.2318837619776572  0.4196895893413157
  0.1022380184338213  0.6801229661670305  0.5445090826277181
  0.1548845421074802  0.1157201537926460  0.5276100330288294
  0.8700651939848345  0.5137991744673645  0.5522447608950237
  0.0736102703317128  0.4294908129328275  0.4848327042581162
  0.4343373987849081  0.2952729551232051  0.5239465048790605
  0.4788400664727244  0.6648119668223399  0.5097460905586870
  0.7935680735217212  0.2513051064075854  0.4885703057490192
  0.7439894363992634  0.8814425016122742  0.5031080474260614
  0.8478885319535114  0.3280554735403754  0.6271254985963067
  0.9027867214232527  0.7558971844830323  0.6128950287613539
  0.6231389824381489  0.1534176553643385  0.6372090672001207
  0.8193310912133243  0.0732014539276012  0.5680332772450322
  0.1791475680928692  0.9477728975766290  0.6087501808254608
  0.2260604119254216  0.3092485468958548  0.5922967252817316
  0.5400144514709943  0.8981394442694099  0.5731002672687832
  0.4896555887929552  0.5263367194128227  0.5860568002467630
  0.7209309109126898  0.4201298086603931  0.6842473875188830
  0.5385442979046030  0.7318936324179703  0.6509902815139109
  0.9727638728391662  0.4923343926266240  0.6912557220872920
  0.9926075436125265  0.9555225955775403  0.6775016034919988
  0.2942976547491439  0.5141411458880900  0.6565987708342083
  0.2267417037181375  0.2242343929513949  0.6687106141192881
 
  0.00000000E+00  0.00000000E+00  0.00000000E+00
  0.00000000E+00  0.00000000E+00  0.00000000E+00
  0.00000000E+00  0.00000000E+00  0.00000000E+00
  0.00000000E+00  0.00000000E+00  0.00000000E+00
  0.00000000E+00  0.00000000E+00  0.00000000E+00
  0.00000000E+00  0.00000000E+00  0.00000000E+00
  0.00000000E+00  0.00000000E+00  0.00000000E+00
  0.00000000E+00  0.00000000E+00  0.00000000E+00
  0.00000000E+00  0.00000000E+00  0.00000000E+00
  0.00000000E+00  0.00000000E+00  0.00000000E+00
  0.00000000E+00  0.00000000E+00  0.00000000E+00
  0.00000000E+00  0.00000000E+00  0.00000000E+00
  0.00000000E+00  0.00000000E+00  0.00000000E+00
  0.00000000E+00  0.00000000E+00  0.00000000E+00
  0.00000000E+00  0.00000000E+00  0.00000000E+00
  0.00000000E+00  0.00000000E+00  0.00000000E+00
  0.00000000E+00  0.00000000E+00  0.00000000E+00
  0.00000000E+00  0.00000000E+00  0.00000000E+00
  0.00000000E+00  0.00000000E+00  0.00000000E+00
  0.00000000E+00  0.00000000E+00  0.00000000E+00
  0.00000000E+00  0.00000000E+00  0.00000000E+00
  0.00000000E+00  0.00000000E+00  0.00000000E+00
  0.00000000E+00  0.00000000E+00  0.00000000E+00
  0.00000000E+00  0.00000000E+00  0.00000000E+00
  0.00000000E+00  0.00000000E+00  0.00000000E+00
  0.00000000E+00  0.00000000E+00  0.00000000E+00
  0.00000000E+00  0.00000000E+00  0.00000000E+00
  0.00000000E+00  0.00000000E+00  0.00000000E+00
  0.00000000E+00  0.00000000E+00  0.00000000E+00
  0.00000000E+00  0.00000000E+00  0.00000000E+00
  0.00000000E+00  0.00000000E+00  0.00000000E+00
  0.00000000E+00  0.00000000E+00  0.00000000E+00
  0.00000000E+00  0.00000000E+00  0.00000000E+00
  0.00000000E+00  0.00000000E+00  0.00000000E+00
  0.00000000E+00  0.00000000E+00  0.00000000E+00
  0.00000000E+00  0.00000000E+00  0.00000000E+00
  0.00000000E+00  0.00000000E+00  0.00000000E+00
  0.00000000E+00  0.00000000E+00  0.00000000E+00
  0.00000000E+00  0.00000000E+00  0.00000000E+00
  0.00000000E+00  0.00000000E+00  0.00000000E+00
  0.00000000E+00  0.00000000E+00  0.00000000E+00
  0.00000000E+00  0.00000000E+00  0.00000000E+00
  0.00000000E+00  0.00000000E+00  0.00000000E+00
  0.00000000E+00  0.00000000E+00  0.00000000E+00
  0.00000000E+00  0.00000000E+00  0.00000000E+00
  0.00000000E+00  0.00000000E+00  0.00000000E+00
  0.00000000E+00  0.00000000E+00  0.00000000E+00
  0.00000000E+00  0.00000000E+00  0.00000000E+00
  0.00000000E+00  0.00000000E+00  0.00000000E+00
  0.00000000E+00  0.00000000E+00  0.00000000E+00
  0.00000000E+00  0.00000000E+00  0.00000000E+00
  0.00000000E+00  0.00000000E+00  0.00000000E+00
  0.00000000E+00  0.00000000E+00  0.00000000E+00
  0.00000000E+00  0.00000000E+00  0.00000000E+00
  0.00000000E+00  0.00000000E+00  0.00000000E+00
  0.00000000E+00  0.00000000E+00  0.00000000E+00
  0.00000000E+00  0.00000000E+00  0.00000000E+00
  0.00000000E+00  0.00000000E+00  0.00000000E+00
  0.00000000E+00  0.00000000E+00  0.00000000E+00
  0.00000000E+00  0.00000000E+00  0.00000000E+00
  0.00000000E+00  0.00000000E+00  0.00000000E+00
  0.00000000E+00  0.00000000E+00  0.00000000E+00
  0.00000000E+00  0.00000000E+00  0.00000000E+00
  0.00000000E+00  0.00000000E+00  0.00000000E+00
  0.00000000E+00  0.00000000E+00  0.00000000E+00
  0.00000000E+00  0.00000000E+00  0.00000000E+00
