# Compound: Zn12W12O48. Old comment: O48
   1.00000000000000     
     7.3812401181000000    0.0000000000000000    0.0000000000000000
     2.9831735916000000    6.1340539435999997    0.0000000000000000
     0.0000000000000000    0.0000000000000000   34.8467577425999977
   Zn   W    O 
    12    12    48
Direct
  0.5476443359299487  0.5477817669621613  0.2920285006208442
  0.1123084891576262  0.0346759676217736  0.2973718582086406
  0.2870023012869832  0.1888530958738933  0.3666107585066476
  0.8868909686904560  0.6418624551178568  0.3814578849175717
  0.0266375709611396  0.8446399075788197  0.4522025331613700
  0.6359496361984458  0.2939616403278236  0.4648199603143931
  0.7693615771015569  0.4913857747721750  0.5351800396856068
  0.3786736423388560  0.9407075076211807  0.5477974668386298
  0.5184202445095450  0.1434849599821410  0.6185421150824286
  0.1183089119130177  0.5964943192261049  0.6333892414933525
  0.2930027241423698  0.7506714474782255  0.7026281417913590
  0.8576668772700451  0.2375656481378372  0.7079714993791559
  0.0594265760126956  0.5464011767924906  0.2872212150370906
  0.6411638852512780  0.0040040866534851  0.2903079126423784
  0.7794890064925880  0.1871366758579944  0.3688994343837773
  0.3900180091409201  0.6491286411794200  0.3806494278026542
  0.5278022257657019  0.8441210761845664  0.4525887141854430
  0.1336231508877287  0.2958173045288912  0.4635957558579065
  0.2716880623122720  0.4895301105711075  0.5364042441420929
  0.8775089875342937  0.9412263389154322  0.5474112858145571
  0.0152932041590756  0.1362187740205815  0.6193505721973456
  0.6258222068074148  0.5982107392420049  0.6311005656162229
  0.7641473280487246  0.7813433284465134  0.7096920873576228
  0.3458846371873054  0.2389462383075147  0.7127787849629094
  0.9552647507511025  0.8671480995502230  0.2827013684340468
  0.0447932445892127  0.3078126024688078  0.2680365493925099
  0.7352914624353249  0.6848901892180494  0.2870807888691752
  0.6824839997676527  0.2472735469853112  0.3089762764532611
  0.2997991618503142  0.5185672437778073  0.2710066339022036
  0.5753900148389760  0.0756077586123472  0.2435002069306577
  0.3955128187715989  0.0651434251341858  0.3122209461621946
  0.3406159320842681  0.7279758514918611  0.3308233565568585
  0.7003936850272563  0.5038152987857629  0.3692833825434831
  0.7596592214061114  0.9354241491810290  0.3541514664433316
  0.4697481202602269  0.3381780391584583  0.3765397617885570
  0.4206209018838585  0.9031932299792447  0.3953320979292628
  0.0305835153700577  0.1283949387582081  0.3512406056945486
  0.0907670463631656  0.4918083576726041  0.3375095534259320
  0.1405111798715962  0.7231975968793651  0.3992403396873507
  0.0930575499817800  0.3553159468532488  0.4131178743749505
  0.4487416469210603  0.1517767188232192  0.4545754007872810
  0.5007091512422002  0.5877685655859346  0.4376147244800982
  0.2139412026983176  0.9871189880540108  0.4619338270571509
  0.1633324541706772  0.5491599748229681  0.4785411417895696
  0.7797052010882490  0.7671813760774037  0.4347354037760099
  0.8231473215479294  0.1369049236515200  0.4195118651512392
  0.8823978118243267  0.3712534895517293  0.4818335152473662
  0.8366236233590760  0.0032062645263131  0.4968659590116527
  0.1913700106016851  0.7982284270459878  0.5380661729428501
  0.2419787590293238  0.2361874402770315  0.5214588582104291
  0.9565695663789424  0.6335706962767794  0.5454245992127186
  0.9046020619578008  0.1975788495140639  0.5623852755199020
  0.5229134014756760  0.4140939255482693  0.5181664847526327
  0.5686875899409267  0.7821411506736802  0.5031340409883481
  0.6256060121117519  0.0181660390225947  0.5652645962239903
  0.5821638916520716  0.6484424914484781  0.5804881348487606
  0.9355630929397744  0.4471693759415403  0.6234602382114428
  0.9846903114161376  0.8821541852207557  0.6046679020707382
  0.7049175282727465  0.2815321163142358  0.6307166174565172
  0.6456519918938842  0.8499232659189767  0.6458485335566695
  0.2648000334284062  0.0621498183206348  0.6007596603126493
  0.3122536633182159  0.4300314682467498  0.5868821256250489
  0.3747276978299429  0.6569524763417968  0.6487593943054510
  0.3145441668368354  0.2935390574273945  0.6624904465740677
  0.6700197508646707  0.1004572259819511  0.7129192111308252
  0.7228272135323500  0.5380738681146879  0.6910237235467389
  0.4500464624488981  0.9181993156497774  0.7172986315659532
  0.3605179687107900  0.4775348126311908  0.7319634506074898
  0.0097983944284018  0.7202039899658198  0.6877790538378055
  0.0646952811157330  0.0573715637081391  0.6691766434431421
  0.1055120514496816  0.2667801713221923  0.7289933660977949
 -0.1700788015389745  0.7097396565876526  0.7564997930693425
 
  0.00000000E+00  0.00000000E+00  0.00000000E+00
  0.00000000E+00  0.00000000E+00  0.00000000E+00
  0.00000000E+00  0.00000000E+00  0.00000000E+00
  0.00000000E+00  0.00000000E+00  0.00000000E+00
  0.00000000E+00  0.00000000E+00  0.00000000E+00
  0.00000000E+00  0.00000000E+00  0.00000000E+00
  0.00000000E+00  0.00000000E+00  0.00000000E+00
  0.00000000E+00  0.00000000E+00  0.00000000E+00
  0.00000000E+00  0.00000000E+00  0.00000000E+00
  0.00000000E+00  0.00000000E+00  0.00000000E+00
  0.00000000E+00  0.00000000E+00  0.00000000E+00
  0.00000000E+00  0.00000000E+00  0.00000000E+00
  0.00000000E+00  0.00000000E+00  0.00000000E+00
  0.00000000E+00  0.00000000E+00  0.00000000E+00
  0.00000000E+00  0.00000000E+00  0.00000000E+00
  0.00000000E+00  0.00000000E+00  0.00000000E+00
  0.00000000E+00  0.00000000E+00  0.00000000E+00
  0.00000000E+00  0.00000000E+00  0.00000000E+00
  0.00000000E+00  0.00000000E+00  0.00000000E+00
  0.00000000E+00  0.00000000E+00  0.00000000E+00
  0.00000000E+00  0.00000000E+00  0.00000000E+00
  0.00000000E+00  0.00000000E+00  0.00000000E+00
  0.00000000E+00  0.00000000E+00  0.00000000E+00
  0.00000000E+00  0.00000000E+00  0.00000000E+00
  0.00000000E+00  0.00000000E+00  0.00000000E+00
  0.00000000E+00  0.00000000E+00  0.00000000E+00
  0.00000000E+00  0.00000000E+00  0.00000000E+00
  0.00000000E+00  0.00000000E+00  0.00000000E+00
  0.00000000E+00  0.00000000E+00  0.00000000E+00
  0.00000000E+00  0.00000000E+00  0.00000000E+00
  0.00000000E+00  0.00000000E+00  0.00000000E+00
  0.00000000E+00  0.00000000E+00  0.00000000E+00
  0.00000000E+00  0.00000000E+00  0.00000000E+00
  0.00000000E+00  0.00000000E+00  0.00000000E+00
  0.00000000E+00  0.00000000E+00  0.00000000E+00
  0.00000000E+00  0.00000000E+00  0.00000000E+00
  0.00000000E+00  0.00000000E+00  0.00000000E+00
  0.00000000E+00  0.00000000E+00  0.00000000E+00
  0.00000000E+00  0.00000000E+00  0.00000000E+00
  0.00000000E+00  0.00000000E+00  0.00000000E+00
  0.00000000E+00  0.00000000E+00  0.00000000E+00
  0.00000000E+00  0.00000000E+00  0.00000000E+00
  0.00000000E+00  0.00000000E+00  0.00000000E+00
  0.00000000E+00  0.00000000E+00  0.00000000E+00
  0.00000000E+00  0.00000000E+00  0.00000000E+00
  0.00000000E+00  0.00000000E+00  0.00000000E+00
  0.00000000E+00  0.00000000E+00  0.00000000E+00
  0.00000000E+00  0.00000000E+00  0.00000000E+00
  0.00000000E+00  0.00000000E+00  0.00000000E+00
  0.00000000E+00  0.00000000E+00  0.00000000E+00
  0.00000000E+00  0.00000000E+00  0.00000000E+00
  0.00000000E+00  0.00000000E+00  0.00000000E+00
  0.00000000E+00  0.00000000E+00  0.00000000E+00
  0.00000000E+00  0.00000000E+00  0.00000000E+00
  0.00000000E+00  0.00000000E+00  0.00000000E+00
  0.00000000E+00  0.00000000E+00  0.00000000E+00
  0.00000000E+00  0.00000000E+00  0.00000000E+00
  0.00000000E+00  0.00000000E+00  0.00000000E+00
  0.00000000E+00  0.00000000E+00  0.00000000E+00
  0.00000000E+00  0.00000000E+00  0.00000000E+00
  0.00000000E+00  0.00000000E+00  0.00000000E+00
  0.00000000E+00  0.00000000E+00  0.00000000E+00
  0.00000000E+00  0.00000000E+00  0.00000000E+00
  0.00000000E+00  0.00000000E+00  0.00000000E+00
  0.00000000E+00  0.00000000E+00  0.00000000E+00
  0.00000000E+00  0.00000000E+00  0.00000000E+00
  0.00000000E+00  0.00000000E+00  0.00000000E+00
  0.00000000E+00  0.00000000E+00  0.00000000E+00
  0.00000000E+00  0.00000000E+00  0.00000000E+00
  0.00000000E+00  0.00000000E+00  0.00000000E+00
  0.00000000E+00  0.00000000E+00  0.00000000E+00
  0.00000000E+00  0.00000000E+00  0.00000000E+00
