# Compound: Zn12W12O42. Old comment: O42
   1.00000000000000     
     7.3812401181000000    0.0000000000000000    0.0000000000000000
     2.9831735916000000    6.1340539435999997    0.0000000000000000
     0.0000000000000000    0.0000000000000000   34.8467577425999977
   Zn   W    O 
    12    12    42
Direct
  0.3061030453083789  0.3576229708997439  0.2950385894619167
 -0.1042209027622530  0.0779888666051112  0.2869242514457272
  0.2003292422476928  0.0551335357604074  0.3693713980265820
  0.8161965045684423  0.5142481746202244  0.3911417806624253
  0.9387712648868044  0.7257275927426646  0.4589732547752853
  0.5466095016441888  0.1723156128622765  0.4715329411340571
  0.6796437542558091  0.3731590672377232  0.5412360721659452
  0.2874819910131998  0.8197470872573335  0.5537957584247147
  0.4100567512315612  0.0312265054797752  0.6216272326375759
  0.0259240136523050  0.4903411443395925  0.6433976152734193
  0.3304741586622582  0.4674858134948888  0.7258447617542725
  0.9201502105916258  0.1878517092002558  0.7177304238380857
  0.9155485348058251  0.4643735817774848  0.2948967808810488
  0.6041463117559961  0.8406415774509366  0.3084045560138512
  0.6931337588992600  0.0880070395339848  0.3752818315262890
  0.2980509990132191  0.5273316262988431  0.3868749048954422
  0.4385429450168802  0.7217983499569998  0.4590053420835911
  0.0469647701817207  0.1740819492143462  0.4699129432102076
  0.1792884856182755  0.3713927308856533  0.5428560700897941
  0.7877103108831176  0.8236763301430001  0.5537636711164076
  0.9282022568867854  0.0181430537011552  0.6258941084045586
  0.5331194970007379  0.4574676405660152  0.6374871817737128
  0.6221069441440018  0.7048331026490633  0.7043644571861477
  0.3107047210941802  0.0811010983225149  0.7178722324189530
  0.8672520641120415  0.7814910803255092  0.2830448991427216
  0.6375761417591908  0.5996970308903760  0.2759966359626588
  0.6167961567116355  0.3897544654330859  0.3774495535481882
  0.6787654823786442  0.8101875611123814  0.3612511106753272
  0.3807030169266715  0.2163816774190047  0.3823178823679892
  0.5902997120299367  0.1355689664663743  0.3126460459071263
  0.9403394758021359  0.0112627575631122  0.3571349105627769
 -0.0196761832446243  0.3677689226665530  0.3420571787399148
  0.3376543061656985  0.9349268278899595  0.3188174458279373
  0.2587958008602409  0.5850072280039554  0.3375483530791187
  0.3606043629311567  0.0299882936564492  0.4613641993938397
  0.4129081383022007  0.4655421594943220  0.4447515559286522
  0.1261319955925878  0.8653445798097931  0.4686072968638141
  0.3311847384591556  0.7810432327085550  0.4015045767722021
  0.6913750340766502  0.6479870497672703  0.4417675502038537
  0.7353076501621417  0.0175246910502693  0.4251629861007257
  0.0467278376565900  0.6033843222461729  0.4056749369655937
  0.0109973709440049  0.2280860923929841  0.4191479055313641
  0.1001212603074100  0.6801301002902068  0.5441617164361875
  0.1520312000657174  0.1168082022278075  0.5279499703594858
  0.8656488929688414  0.5154863864435502  0.5514048138061598
  0.0742220558342804  0.4286664778721928  0.4848190428405137
  0.4315863906575710  0.2958297699253485  0.5251285452971579
  0.4796669876991601  0.6605520676907757  0.5096686790086218
  0.7946668652424272  0.2496449101746588  0.4876404680028433
  0.7465862682008377  0.8849226124092242  0.5031003341913780
  0.8455502388733247  0.3290930026809951  0.6304511309320128
  0.8950685174408423  0.7644314472914431  0.6112644365277997
  0.6094570991883624  0.1557202146669143  0.6353194597518126
  0.8133451174978021  0.0799325206056782  0.5680174573713425
  0.1795254182434079  0.9420903577538252  0.6070940763344008
  0.2152558849559999  0.3173885877070159  0.5936211077686377
  0.5348782218233477  0.8974876303327296  0.5710014629961465
  0.4909456057378633  0.5279499890497307  0.5876060271992696
  0.5886771141408143  0.9457776491096292  0.7367723772373411
  0.6359535438700612  0.4099057136336258  0.7001229673928688
  0.3590011916879625  0.7639835996744889  0.7297241141572793
  0.5474877735213608  0.7352871189876184  0.6515179026246748
  0.8885989496343041  0.6105478522100404  0.6939515673720619
  0.9674574549397544  0.9604674520960444  0.6752206602208761
  0.2859137800978620  0.5342119225368880  0.6556341027372179
  0.2459294391446222  0.1777057574334470  0.6707118345600863
 
  0.00000000E+00  0.00000000E+00  0.00000000E+00
  0.00000000E+00  0.00000000E+00  0.00000000E+00
  0.00000000E+00  0.00000000E+00  0.00000000E+00
  0.00000000E+00  0.00000000E+00  0.00000000E+00
  0.00000000E+00  0.00000000E+00  0.00000000E+00
  0.00000000E+00  0.00000000E+00  0.00000000E+00
  0.00000000E+00  0.00000000E+00  0.00000000E+00
  0.00000000E+00  0.00000000E+00  0.00000000E+00
  0.00000000E+00  0.00000000E+00  0.00000000E+00
  0.00000000E+00  0.00000000E+00  0.00000000E+00
  0.00000000E+00  0.00000000E+00  0.00000000E+00
  0.00000000E+00  0.00000000E+00  0.00000000E+00
  0.00000000E+00  0.00000000E+00  0.00000000E+00
  0.00000000E+00  0.00000000E+00  0.00000000E+00
  0.00000000E+00  0.00000000E+00  0.00000000E+00
  0.00000000E+00  0.00000000E+00  0.00000000E+00
  0.00000000E+00  0.00000000E+00  0.00000000E+00
  0.00000000E+00  0.00000000E+00  0.00000000E+00
  0.00000000E+00  0.00000000E+00  0.00000000E+00
  0.00000000E+00  0.00000000E+00  0.00000000E+00
  0.00000000E+00  0.00000000E+00  0.00000000E+00
  0.00000000E+00  0.00000000E+00  0.00000000E+00
  0.00000000E+00  0.00000000E+00  0.00000000E+00
  0.00000000E+00  0.00000000E+00  0.00000000E+00
  0.00000000E+00  0.00000000E+00  0.00000000E+00
  0.00000000E+00  0.00000000E+00  0.00000000E+00
  0.00000000E+00  0.00000000E+00  0.00000000E+00
  0.00000000E+00  0.00000000E+00  0.00000000E+00
  0.00000000E+00  0.00000000E+00  0.00000000E+00
  0.00000000E+00  0.00000000E+00  0.00000000E+00
  0.00000000E+00  0.00000000E+00  0.00000000E+00
  0.00000000E+00  0.00000000E+00  0.00000000E+00
  0.00000000E+00  0.00000000E+00  0.00000000E+00
  0.00000000E+00  0.00000000E+00  0.00000000E+00
  0.00000000E+00  0.00000000E+00  0.00000000E+00
  0.00000000E+00  0.00000000E+00  0.00000000E+00
  0.00000000E+00  0.00000000E+00  0.00000000E+00
  0.00000000E+00  0.00000000E+00  0.00000000E+00
  0.00000000E+00  0.00000000E+00  0.00000000E+00
  0.00000000E+00  0.00000000E+00  0.00000000E+00
  0.00000000E+00  0.00000000E+00  0.00000000E+00
  0.00000000E+00  0.00000000E+00  0.00000000E+00
  0.00000000E+00  0.00000000E+00  0.00000000E+00
  0.00000000E+00  0.00000000E+00  0.00000000E+00
  0.00000000E+00  0.00000000E+00  0.00000000E+00
  0.00000000E+00  0.00000000E+00  0.00000000E+00
  0.00000000E+00  0.00000000E+00  0.00000000E+00
  0.00000000E+00  0.00000000E+00  0.00000000E+00
  0.00000000E+00  0.00000000E+00  0.00000000E+00
  0.00000000E+00  0.00000000E+00  0.00000000E+00
  0.00000000E+00  0.00000000E+00  0.00000000E+00
  0.00000000E+00  0.00000000E+00  0.00000000E+00
  0.00000000E+00  0.00000000E+00  0.00000000E+00
  0.00000000E+00  0.00000000E+00  0.00000000E+00
  0.00000000E+00  0.00000000E+00  0.00000000E+00
  0.00000000E+00  0.00000000E+00  0.00000000E+00
  0.00000000E+00  0.00000000E+00  0.00000000E+00
  0.00000000E+00  0.00000000E+00  0.00000000E+00
  0.00000000E+00  0.00000000E+00  0.00000000E+00
  0.00000000E+00  0.00000000E+00  0.00000000E+00
  0.00000000E+00  0.00000000E+00  0.00000000E+00
  0.00000000E+00  0.00000000E+00  0.00000000E+00
  0.00000000E+00  0.00000000E+00  0.00000000E+00
  0.00000000E+00  0.00000000E+00  0.00000000E+00
  0.00000000E+00  0.00000000E+00  0.00000000E+00
  0.00000000E+00  0.00000000E+00  0.00000000E+00
