# Compound: Zn10W10O44. Old comment: O44
   1.00000000000000     
     7.3812401181000000    0.0000000000000000    0.0000000000000000
     2.9831735916000000    6.1340539435999997    0.0000000000000000
     0.0000000000000000    0.0000000000000000   34.8467577425999977
   Zn   W    O 
    10    10    44
Direct
  0.4729369822393954  0.4762578981972028  0.2920339782663114
  0.0721404964429172  0.9345593334261959  0.2990219430286867
  0.2281590859813582  0.1080524117680969  0.3711481825353899
  0.8261661077306134  0.5686840345347891  0.3861292714156505
  0.9655084083736931  0.7657118217268380  0.4563624082854512
  0.5786677321263063  0.2114030409731605  0.4688169339145451
  0.7180100328693807  0.4084308282652118  0.5390500707843521
  0.3160170546186429  0.8690624509319020  0.5540311596646060
  0.4720356441570841  0.0425555292738030  0.6261573991713097
  0.0712391583606058  0.5008569646027985  0.6331453639336923
  0.9683011159555305  0.4720676154299900  0.2926962401882799
  0.5777718517135882  0.9371250714195621  0.2954193473790070
  0.7237123793274689  0.1108041664193556  0.3731933749641814
  0.3315970073345742  0.5654743553019678  0.3855113891927255
  0.4682506130193284  0.7632742307720786  0.4574408828765478
  0.0759255275806730  0.2138406320279218  0.4677384593234485
  0.2125791332654270  0.4116405073980310  0.5396679530072781
  0.8204637611725305  0.8663106962806433  0.5519859672358151
  0.9664042887864112  0.0399897912804372  0.6297599948209894
  0.5758750246444636  0.5050472473700105  0.6324831020117238
  0.8845047956471822  0.7923014746263849  0.2887830545388985
  0.9606729515136998  0.2302013708156049  0.2741936500976020
  0.6681614431000270  0.6141294624590490  0.2933049868104560
  0.6086125411253920  0.1856132824846687  0.3136363240467325
  0.2043416948422279  0.4348103094873891  0.2698653986772350
  0.2658546684294864  0.7211928700354160  0.2599537887354557
  0.4552736318131803  0.4452096987059749  0.2347071080378166
  0.5104333007441040  0.0039351381292043  0.2484788187268918
  0.6438369057319858  0.4238586145661782  0.3748113365685707
  0.6944163584088423  0.8639407965390763  0.3584651309651954
  0.4118781227076711  0.2566377402881528  0.3825104218850975
  0.3602599095512430  0.8208182683463221  0.3997453403899470
  0.9718673345928456  0.0420833251695018  0.3534932386153808
  0.0259061626851580  0.4121686575998935  0.3423380702471653
  0.3337507694032890  0.9905388984550261  0.3176435075787128
  0.2884921943276498  0.6288525854354595  0.3351063696038223
  0.3894889744956938  0.0712139814905056  0.4587972068621445
  0.4412391581840033  0.5069597761973768  0.4425522783658046
  0.1546871660043054  0.9059008812094934  0.4663821353378518
  0.1029369824159907  0.4701550865026219  0.4826270638341917
  0.7198729842846002  0.6871337292802315  0.4392372349926005
  0.7697905933885727  0.0549412659256637  0.4237442527094275
  0.0797786978329737  0.6424308577099241  0.4034068876322038
  0.0357066454497149  0.2720678003412998  0.4172467945861217
  0.1322980178923301  0.7204771225118476  0.5426689203149062
  0.1839162309487561  0.1562965943536779  0.5254340018100566
  0.9003392347680207  0.5532562481338213  0.5503680056314261
  0.8497597821911589  0.1131740661609291  0.5667142112348005
  0.4643974426670329  0.3346840049900744  0.5217724545677923
  0.5084694950502843  0.7050470623586986  0.5079325476138815
  0.8243031563154010  0.2899811334197670  0.4859421072074029
  0.7743855472114214  0.9221735967743352  0.5014350894905681
  0.8760146974999742  0.3629854002409496  0.6318743553895398
  0.9355635993746074  0.7915015802153297  0.6115430181532637
  0.6596713449528190  0.1848133880736142  0.6363962876611053
  0.5835031889862996  0.7469134919843960  0.6509856921024011
  0.2104253711967124  0.9865759642449727  0.6075358346212835
  0.2556839462723516  0.3482622772645392  0.5900729725961816
  0.5723088060071556  0.9350315375304973  0.5716861035846162
  0.5182699779148429  0.5649462052001069  0.5828412719528376
  0.0889025087868137  0.5319051640940257  0.6904722341621871
  0.0337428398558970 -0.0268202754292051  0.6767005234731049
  0.3398344457577733  0.5423045533126115  0.6553139435227616
  0.2783214721705078  0.2559219926645823  0.6652255534645485
 
  0.00000000E+00  0.00000000E+00  0.00000000E+00
  0.00000000E+00  0.00000000E+00  0.00000000E+00
  0.00000000E+00  0.00000000E+00  0.00000000E+00
  0.00000000E+00  0.00000000E+00  0.00000000E+00
  0.00000000E+00  0.00000000E+00  0.00000000E+00
  0.00000000E+00  0.00000000E+00  0.00000000E+00
  0.00000000E+00  0.00000000E+00  0.00000000E+00
  0.00000000E+00  0.00000000E+00  0.00000000E+00
  0.00000000E+00  0.00000000E+00  0.00000000E+00
  0.00000000E+00  0.00000000E+00  0.00000000E+00
  0.00000000E+00  0.00000000E+00  0.00000000E+00
  0.00000000E+00  0.00000000E+00  0.00000000E+00
  0.00000000E+00  0.00000000E+00  0.00000000E+00
  0.00000000E+00  0.00000000E+00  0.00000000E+00
  0.00000000E+00  0.00000000E+00  0.00000000E+00
  0.00000000E+00  0.00000000E+00  0.00000000E+00
  0.00000000E+00  0.00000000E+00  0.00000000E+00
  0.00000000E+00  0.00000000E+00  0.00000000E+00
  0.00000000E+00  0.00000000E+00  0.00000000E+00
  0.00000000E+00  0.00000000E+00  0.00000000E+00
  0.00000000E+00  0.00000000E+00  0.00000000E+00
  0.00000000E+00  0.00000000E+00  0.00000000E+00
  0.00000000E+00  0.00000000E+00  0.00000000E+00
  0.00000000E+00  0.00000000E+00  0.00000000E+00
  0.00000000E+00  0.00000000E+00  0.00000000E+00
  0.00000000E+00  0.00000000E+00  0.00000000E+00
  0.00000000E+00  0.00000000E+00  0.00000000E+00
  0.00000000E+00  0.00000000E+00  0.00000000E+00
  0.00000000E+00  0.00000000E+00  0.00000000E+00
  0.00000000E+00  0.00000000E+00  0.00000000E+00
  0.00000000E+00  0.00000000E+00  0.00000000E+00
  0.00000000E+00  0.00000000E+00  0.00000000E+00
  0.00000000E+00  0.00000000E+00  0.00000000E+00
  0.00000000E+00  0.00000000E+00  0.00000000E+00
  0.00000000E+00  0.00000000E+00  0.00000000E+00
  0.00000000E+00  0.00000000E+00  0.00000000E+00
  0.00000000E+00  0.00000000E+00  0.00000000E+00
  0.00000000E+00  0.00000000E+00  0.00000000E+00
  0.00000000E+00  0.00000000E+00  0.00000000E+00
  0.00000000E+00  0.00000000E+00  0.00000000E+00
  0.00000000E+00  0.00000000E+00  0.00000000E+00
  0.00000000E+00  0.00000000E+00  0.00000000E+00
  0.00000000E+00  0.00000000E+00  0.00000000E+00
  0.00000000E+00  0.00000000E+00  0.00000000E+00
  0.00000000E+00  0.00000000E+00  0.00000000E+00
  0.00000000E+00  0.00000000E+00  0.00000000E+00
  0.00000000E+00  0.00000000E+00  0.00000000E+00
  0.00000000E+00  0.00000000E+00  0.00000000E+00
  0.00000000E+00  0.00000000E+00  0.00000000E+00
  0.00000000E+00  0.00000000E+00  0.00000000E+00
  0.00000000E+00  0.00000000E+00  0.00000000E+00
  0.00000000E+00  0.00000000E+00  0.00000000E+00
  0.00000000E+00  0.00000000E+00  0.00000000E+00
  0.00000000E+00  0.00000000E+00  0.00000000E+00
  0.00000000E+00  0.00000000E+00  0.00000000E+00
  0.00000000E+00  0.00000000E+00  0.00000000E+00
  0.00000000E+00  0.00000000E+00  0.00000000E+00
  0.00000000E+00  0.00000000E+00  0.00000000E+00
  0.00000000E+00  0.00000000E+00  0.00000000E+00
  0.00000000E+00  0.00000000E+00  0.00000000E+00
  0.00000000E+00  0.00000000E+00  0.00000000E+00
  0.00000000E+00  0.00000000E+00  0.00000000E+00
  0.00000000E+00  0.00000000E+00  0.00000000E+00
  0.00000000E+00  0.00000000E+00  0.00000000E+00
