# Compound: Zn10W10O42. Old comment: O42
   1.00000000000000     
     7.3812401181000000    0.0000000000000000    0.0000000000000000
     2.9831735916000000    6.1340539435999997    0.0000000000000000
     0.0000000000000000    0.0000000000000000   34.8467577425999977
   Zn   W    O 
    10    10    42
Direct
  0.4965244443294138  0.5193137427521093  0.2905164055138287
  0.1016583756497223  0.9742969023743571  0.2952858650375130
  0.2552445885950420  0.1443281403115156  0.3690761273989108
  0.8519715485532565  0.6074868921322012  0.3837680604511993
  0.9917012606579938  0.8037855659557369  0.4544251086307144
  0.6078470574420116  0.2475351306442639  0.4664978957692879
  0.7475767694467400  0.4438338044677931  0.5371549439488029
  0.3443037294049546  0.9069925562884852  0.5518468770010844
  0.4978899423502812  0.0770237943256388  0.6256371393624820
  0.1030238736705896  0.5320069538478920  0.6304065988861736
  0.0036704574379300  0.5098461779699838  0.2903030210335599
  0.6057418129401131  0.9739434995159983  0.2925785947019971
  0.7501770671538200  0.1492386051943213  0.3705019385427824
  0.3569686152343557  0.6031503885014881  0.3838822923887620
  0.4958974430017175  0.8006832672355040  0.4554321605963865
  0.1036508749982788  0.2506374293644905  0.4654908438036087
  0.2425797027656478  0.4481703080985126  0.5370407120112407
  0.8493712509461854  0.9020820915056744  0.5504210658572126
  0.9938065051598852  0.0773771970840031  0.6283444096979978
  0.5958778605620666  0.5414745186300175  0.6306199833664419
  0.9106494360507599  0.8298036429020219  0.2856275471854770
 -0.0055690569534853  0.2715574920349408  0.2706321976994639
  0.6971509113136366  0.6496113600059781  0.2906920270430315
  0.6349298403099107  0.2244077628415225  0.3103912029305747
  0.2432309945296199  0.4774165436155465  0.2697729793956760
  0.3073293720461328  0.7646573158640014  0.2604818661014815
  0.3624091505872542  0.0267646626090118  0.3154847157321642
  0.5345036343568369  0.0422054270914765  0.2458294798632990
  0.6698737535146759  0.4620071605568862  0.3724478630695703
  0.7211558686861389  0.9020216626740399  0.3556268669576800
  0.4390518117347019  0.2934488329724310  0.3798568368407723
  0.3865086064177475  0.8588958399506853  0.3979578624779472
 -0.0035257373837415  0.0816398919243757  0.3499292955079506
  0.0526319639958600  0.4493157898784386  0.3401003513904453
  0.1054427266198276  0.6784289589356941  0.4018808525604732
  0.3082768162903659  0.6729175026734855  0.3343357440888348
  0.4173717886102768  0.1085446253402362  0.4564418989355363
  0.4695606012628591  0.5439813901192180  0.4407093044764869
  0.1821765293897267  0.9427760713597666  0.4644811054644589
  0.1299877167371372  0.5073393064807833  0.4802136999235154
  0.7473075005792502  0.7244008333535666  0.4370997483099698
  0.7977047636797678  0.0919648042969401  0.4210261946293075
  0.8522408174207534  0.3269198632464347  0.4838232560900325
  0.0631975023713082  0.3070693724742458  0.4148978372965705
  0.1604965062652946  0.7578718636275698  0.5410661675592300
  0.2130397115822562  0.1924248566493162  0.5229651419220559
  0.9296745644853206  0.5893135360431143  0.5484751413304246
  0.8783924493138647  0.1492990340259636  0.5652961374423223
  0.4941055914801707  0.3728917376643077  0.5190421518395298
  0.5363508157286899  0.7442513241257555  0.5060251671034315
  0.6030740553837380  0.9696808047756277  0.5709937088920524
  0.8018435543202287  0.9593558924030627  0.4998968097706877
  0.9023974066863670  0.4017093365940230  0.6302309773569637
  0.9646184777900876  0.8269129338584807  0.6105318014694275
  0.6888988819492438  0.2215170536979794  0.6352954572145255
  0.6051173750534837  0.7797632045650602  0.6502908067005382
  0.2371391674127495  0.0245560340909912  0.6054382886678380
  0.2912715017096377  0.3784031939265161  0.5865872603111680
  0.3563173234703838  0.5739041529844546  0.6511500250043250
  0.5469163540041436  0.6020049067215633  0.5808226530095576
  0.0650446836431599  0.0091152696085194  0.6750935245366965
  0.2922189459538637  0.2866633808359947  0.6604411382985211
 
  0.00000000E+00  0.00000000E+00  0.00000000E+00
  0.00000000E+00  0.00000000E+00  0.00000000E+00
  0.00000000E+00  0.00000000E+00  0.00000000E+00
  0.00000000E+00  0.00000000E+00  0.00000000E+00
  0.00000000E+00  0.00000000E+00  0.00000000E+00
  0.00000000E+00  0.00000000E+00  0.00000000E+00
  0.00000000E+00  0.00000000E+00  0.00000000E+00
  0.00000000E+00  0.00000000E+00  0.00000000E+00
  0.00000000E+00  0.00000000E+00  0.00000000E+00
  0.00000000E+00  0.00000000E+00  0.00000000E+00
  0.00000000E+00  0.00000000E+00  0.00000000E+00
  0.00000000E+00  0.00000000E+00  0.00000000E+00
  0.00000000E+00  0.00000000E+00  0.00000000E+00
  0.00000000E+00  0.00000000E+00  0.00000000E+00
  0.00000000E+00  0.00000000E+00  0.00000000E+00
  0.00000000E+00  0.00000000E+00  0.00000000E+00
  0.00000000E+00  0.00000000E+00  0.00000000E+00
  0.00000000E+00  0.00000000E+00  0.00000000E+00
  0.00000000E+00  0.00000000E+00  0.00000000E+00
  0.00000000E+00  0.00000000E+00  0.00000000E+00
  0.00000000E+00  0.00000000E+00  0.00000000E+00
  0.00000000E+00  0.00000000E+00  0.00000000E+00
  0.00000000E+00  0.00000000E+00  0.00000000E+00
  0.00000000E+00  0.00000000E+00  0.00000000E+00
  0.00000000E+00  0.00000000E+00  0.00000000E+00
  0.00000000E+00  0.00000000E+00  0.00000000E+00
  0.00000000E+00  0.00000000E+00  0.00000000E+00
  0.00000000E+00  0.00000000E+00  0.00000000E+00
  0.00000000E+00  0.00000000E+00  0.00000000E+00
  0.00000000E+00  0.00000000E+00  0.00000000E+00
  0.00000000E+00  0.00000000E+00  0.00000000E+00
  0.00000000E+00  0.00000000E+00  0.00000000E+00
  0.00000000E+00  0.00000000E+00  0.00000000E+00
  0.00000000E+00  0.00000000E+00  0.00000000E+00
  0.00000000E+00  0.00000000E+00  0.00000000E+00
  0.00000000E+00  0.00000000E+00  0.00000000E+00
  0.00000000E+00  0.00000000E+00  0.00000000E+00
  0.00000000E+00  0.00000000E+00  0.00000000E+00
  0.00000000E+00  0.00000000E+00  0.00000000E+00
  0.00000000E+00  0.00000000E+00  0.00000000E+00
  0.00000000E+00  0.00000000E+00  0.00000000E+00
  0.00000000E+00  0.00000000E+00  0.00000000E+00
  0.00000000E+00  0.00000000E+00  0.00000000E+00
  0.00000000E+00  0.00000000E+00  0.00000000E+00
  0.00000000E+00  0.00000000E+00  0.00000000E+00
  0.00000000E+00  0.00000000E+00  0.00000000E+00
  0.00000000E+00  0.00000000E+00  0.00000000E+00
  0.00000000E+00  0.00000000E+00  0.00000000E+00
  0.00000000E+00  0.00000000E+00  0.00000000E+00
  0.00000000E+00  0.00000000E+00  0.00000000E+00
  0.00000000E+00  0.00000000E+00  0.00000000E+00
  0.00000000E+00  0.00000000E+00  0.00000000E+00
  0.00000000E+00  0.00000000E+00  0.00000000E+00
  0.00000000E+00  0.00000000E+00  0.00000000E+00
  0.00000000E+00  0.00000000E+00  0.00000000E+00
  0.00000000E+00  0.00000000E+00  0.00000000E+00
  0.00000000E+00  0.00000000E+00  0.00000000E+00
  0.00000000E+00  0.00000000E+00  0.00000000E+00
  0.00000000E+00  0.00000000E+00  0.00000000E+00
  0.00000000E+00  0.00000000E+00  0.00000000E+00
  0.00000000E+00  0.00000000E+00  0.00000000E+00
  0.00000000E+00  0.00000000E+00  0.00000000E+00
