# Compound: Zn12W12O48. Old comment: O48
   1.00000000000000     
     7.3812401181000000    0.0000000000000000    0.0000000000000000
     2.9831735916000000    6.1340539435999997    0.0000000000000000
     0.0000000000000000    0.0000000000000000   34.8467577425999977
   Zn   W    O 
    12    12    48
Direct
  0.4307951147000686  0.3778429892705705  0.3375819558448402
  0.4037309424073577  0.1831268121266582  0.2687190990878465
  0.1612045980957223  0.0165509732291888  0.4131662362407513
  0.0591378703965554  0.8241168622755172  0.3399379144251145
  0.8871240453029490  0.6787858715805999  0.4951450208904782
  0.7665635297495554  0.4692054244307373  0.4216911250894027
  0.6387476834504455  0.3161419907692631  0.5783088749105967
  0.5181871679970467  0.1065615435193987  0.5048549791095217
  0.3461733428034384  0.9612305528244814  0.6600620855748860
  0.2441066152042805  0.7687964418708101  0.5868337637592490
  0.0015802708926452  0.6022206029733475  0.7312809009121520
 -0.0254839015000676  0.4075044259294299  0.6624180441551601
  0.9461513310518780  0.4011464206867692  0.3267672414974781
  0.8469783020023930  0.2027062160552496  0.2567514113442693
  0.6613982477781444  0.0165962330037147  0.4066679508867657
  0.5022178366296070  0.7983552370737068  0.3359426391520880
  0.4043632104343073  0.6694713516002306  0.4943256552143396
  0.2608153263160201  0.4632794686088361  0.4261416993584640
  0.1444958868839808  0.3220679464911625  0.5738583006415359
  0.0009480027656938  0.1158760635997697  0.5056743447856593
  0.9030933766703888  0.9869921780262918  0.6640573608479117
  0.7439129655218513  0.7687511820962829  0.5933320491132339
  0.5583329112976098  0.5826411991447500  0.7432485886557310
  0.4591598822481240  0.3842009945132312  0.6732327585025204
  0.8612816586116664  0.6942102599557065  0.3278045679042876
  0.9361260699865364  0.1066924291369465  0.3064489610294616
  0.0263722772058431  0.0549709683386930  0.2230060017770837
  0.8519432588311613  0.4592142700131494  0.2629367336389926
  0.1948252966388385  0.3217831165660421  0.3043578223231457
  0.3237395874053742  0.6696929274916724  0.3149015891784644
  0.5988415940384682  0.2290761766585089  0.2429442764727255
  0.5046794902638362  0.8992142897018509  0.2887463650133408
  0.5825808258548729  0.3250918470082532  0.4104535759680861
  0.6319764977418288  0.7560025772574285  0.3914782285074323
  0.6595386716733841  0.4802003079291244  0.3316211490450824
  0.5493538115232596  0.0769526499520422  0.3528006673975838
  0.9160001494153793  0.9475920342713804  0.3913323629024597
  0.9742814079112528  0.3280145674792676  0.3762284117808861
  0.2640530721105151  0.9528441769345281  0.3604138139126848
  0.2130668458656095  0.5357652580988194  0.3764049106342812
  0.3208708487926514  0.9751653641505873  0.4960913884526482
  0.3783698826455254  0.4085324407946064  0.4807809269161882
  0.3471229085659641  0.1605215438719079  0.4222994267621909
  0.2954441520396400  0.7222941920411938  0.4385576255390573
  0.6552417073022369  0.5901829328549965  0.4764265667684774
  0.6970020514000376  0.9537312485633110  0.4581377749572532
  0.0069736847712405  0.5457668124896720  0.4424972224058362
  0.9634326450184393  0.1785850278159584  0.4548153331932677
  0.0581883046340374  0.6248258713280928  0.5777005732378095
  0.1098670612603560  0.0630532230588048  0.5614423744609431
  0.0844403645073440  0.8101820509494113  0.5039086115473513
  0.0269413305544759  0.3768149743053922  0.5192190730838123
  0.3983375285287623  0.2395806026103263  0.5575027775941636
  0.4418785682815560  0.6067623872840400  0.5451846668067321
  0.7500695059977588  0.1951644822450028  0.5235734332315218
  0.7083091618999652  0.8316161665366876  0.5418622250427464
  0.7457725416266187  0.3051471071708740  0.6683788509549182
  0.8559574017767432  0.7083947651479560  0.6471993326024156
  0.8227303874451298  0.4602555680917454  0.5895464240319129
  0.7733347155581667  0.0293448378425771  0.6085217714925678
  0.1412581410894859  0.8325032381654706  0.6395861860873152
  0.1922443673343915  0.2495821570011783  0.6235950893657177
  0.4893110637846224  0.8377553808286182  0.6086676370975408
  0.4310298052887409  0.4573328477207328  0.6237715882191133
  0.3789389360941601  0.7303764467613055  0.7769939982229160
  0.5533679543688397  0.3261331451868510  0.7370632663610068
  0.5440295545883346  0.0911371551442918  0.6721954320957115
  0.4691851433134664  0.6786549860630537  0.6935510389705383
  0.8064696191615327  0.5562712385414917  0.7570557235272743
  0.9006317229361649  0.8861331253981477  0.7112536349866596
  0.2104859166611643  0.4635642986339582  0.6956421776768539
  0.0815716258946286  0.1156544876083265  0.6850984108215358
 
  0.00000000E+00  0.00000000E+00  0.00000000E+00
  0.00000000E+00  0.00000000E+00  0.00000000E+00
  0.00000000E+00  0.00000000E+00  0.00000000E+00
  0.00000000E+00  0.00000000E+00  0.00000000E+00
  0.00000000E+00  0.00000000E+00  0.00000000E+00
  0.00000000E+00  0.00000000E+00  0.00000000E+00
  0.00000000E+00  0.00000000E+00  0.00000000E+00
  0.00000000E+00  0.00000000E+00  0.00000000E+00
  0.00000000E+00  0.00000000E+00  0.00000000E+00
  0.00000000E+00  0.00000000E+00  0.00000000E+00
  0.00000000E+00  0.00000000E+00  0.00000000E+00
  0.00000000E+00  0.00000000E+00  0.00000000E+00
  0.00000000E+00  0.00000000E+00  0.00000000E+00
  0.00000000E+00  0.00000000E+00  0.00000000E+00
  0.00000000E+00  0.00000000E+00  0.00000000E+00
  0.00000000E+00  0.00000000E+00  0.00000000E+00
  0.00000000E+00  0.00000000E+00  0.00000000E+00
  0.00000000E+00  0.00000000E+00  0.00000000E+00
  0.00000000E+00  0.00000000E+00  0.00000000E+00
  0.00000000E+00  0.00000000E+00  0.00000000E+00
  0.00000000E+00  0.00000000E+00  0.00000000E+00
  0.00000000E+00  0.00000000E+00  0.00000000E+00
  0.00000000E+00  0.00000000E+00  0.00000000E+00
  0.00000000E+00  0.00000000E+00  0.00000000E+00
  0.00000000E+00  0.00000000E+00  0.00000000E+00
  0.00000000E+00  0.00000000E+00  0.00000000E+00
  0.00000000E+00  0.00000000E+00  0.00000000E+00
  0.00000000E+00  0.00000000E+00  0.00000000E+00
  0.00000000E+00  0.00000000E+00  0.00000000E+00
  0.00000000E+00  0.00000000E+00  0.00000000E+00
  0.00000000E+00  0.00000000E+00  0.00000000E+00
  0.00000000E+00  0.00000000E+00  0.00000000E+00
  0.00000000E+00  0.00000000E+00  0.00000000E+00
  0.00000000E+00  0.00000000E+00  0.00000000E+00
  0.00000000E+00  0.00000000E+00  0.00000000E+00
  0.00000000E+00  0.00000000E+00  0.00000000E+00
  0.00000000E+00  0.00000000E+00  0.00000000E+00
  0.00000000E+00  0.00000000E+00  0.00000000E+00
  0.00000000E+00  0.00000000E+00  0.00000000E+00
  0.00000000E+00  0.00000000E+00  0.00000000E+00
  0.00000000E+00  0.00000000E+00  0.00000000E+00
  0.00000000E+00  0.00000000E+00  0.00000000E+00
  0.00000000E+00  0.00000000E+00  0.00000000E+00
  0.00000000E+00  0.00000000E+00  0.00000000E+00
  0.00000000E+00  0.00000000E+00  0.00000000E+00
  0.00000000E+00  0.00000000E+00  0.00000000E+00
  0.00000000E+00  0.00000000E+00  0.00000000E+00
  0.00000000E+00  0.00000000E+00  0.00000000E+00
  0.00000000E+00  0.00000000E+00  0.00000000E+00
  0.00000000E+00  0.00000000E+00  0.00000000E+00
  0.00000000E+00  0.00000000E+00  0.00000000E+00
  0.00000000E+00  0.00000000E+00  0.00000000E+00
  0.00000000E+00  0.00000000E+00  0.00000000E+00
  0.00000000E+00  0.00000000E+00  0.00000000E+00
  0.00000000E+00  0.00000000E+00  0.00000000E+00
  0.00000000E+00  0.00000000E+00  0.00000000E+00
  0.00000000E+00  0.00000000E+00  0.00000000E+00
  0.00000000E+00  0.00000000E+00  0.00000000E+00
  0.00000000E+00  0.00000000E+00  0.00000000E+00
  0.00000000E+00  0.00000000E+00  0.00000000E+00
  0.00000000E+00  0.00000000E+00  0.00000000E+00
  0.00000000E+00  0.00000000E+00  0.00000000E+00
  0.00000000E+00  0.00000000E+00  0.00000000E+00
  0.00000000E+00  0.00000000E+00  0.00000000E+00
  0.00000000E+00  0.00000000E+00  0.00000000E+00
  0.00000000E+00  0.00000000E+00  0.00000000E+00
  0.00000000E+00  0.00000000E+00  0.00000000E+00
  0.00000000E+00  0.00000000E+00  0.00000000E+00
  0.00000000E+00  0.00000000E+00  0.00000000E+00
  0.00000000E+00  0.00000000E+00  0.00000000E+00
  0.00000000E+00  0.00000000E+00  0.00000000E+00
  0.00000000E+00  0.00000000E+00  0.00000000E+00
