# Compound: Zn12W12O46. Old comment: O46
   1.00000000000000     
     7.3812401181000000    0.0000000000000000    0.0000000000000000
     2.9831735916000000    6.1340539435999997    0.0000000000000000
     0.0000000000000000    0.0000000000000000   34.8467577425999977
   Zn   W    O 
    12    12    46
Direct
  0.5205600008713935  0.4696807691102929  0.2934515449763044
  0.0886072383479772  0.9583669030256550  0.3011112978432474
  0.2560569154089886  0.1502163588074958  0.3697485926665486
  0.8734595307432139  0.5906296016445043  0.3857252489785489
  0.9935541327302677  0.8039401676013558  0.4546743636523214
  0.6030947919661187  0.2521998829716555  0.4666307751054002
  0.7385627938338815  0.4478997649283411  0.5376255625945998
  0.3481034530697327  0.8961594801986461  0.5495819741476800
  0.4681980550567856  0.1094700462554934  0.6185310887214504
  0.0856006703910117  0.5498832890925075  0.6345077450334501
  0.2530503474520229  0.7417327448743416  0.7031450399567533
  0.8210975849286066  0.2304188787897037  0.7108047927236949
  0.0425525889501825  0.4676584144670530  0.2866093702708737
  0.6469110892076819  0.8979275891400981  0.3063617424496466
  0.7559307663534472  0.1630842815643105  0.3716032121732500
  0.3557323592110140  0.6092524215605337  0.3822853309581395
  0.4981215024317430  0.8012007324573934  0.4544479767144483
  0.1023401598215289  0.2508354885515906  0.4663398055768379
  0.2393174259784713  0.4492641593484060  0.5379165321231609
  0.8435360833682580  0.8988989154426031  0.5498083610855461
  0.9859252265889866  0.0908472262394679  0.6219710067418593
  0.5857268194465529  0.5370153663356859  0.6326531255267503
  0.6947464965923182  0.8021720587599056  0.6978945953503475
  0.2991049968498176  0.2324412334329507  0.7176469674291260
  0.9316077775590662  0.7928754151024242  0.2831082966293302
  0.0282480340542053  0.2241183401925028  0.2698463828468670
  0.7069664242941842  0.6121105473349207  0.2847641129737327
  0.6679147250253892  0.1788555682613166  0.3139209101957657
  0.2835479521764763  0.4381064287569816  0.2697975784980002
  0.3794077813291719  0.0058277928601896  0.3131649865874374
  0.6766734385977033  0.4675632173838207  0.3709808425594761
  0.7395265174693069  0.8838628223525983  0.3577587743592756
  0.4432422428238800  0.2985828976785931  0.3792075082878428
  0.3921188205471976  0.8606529647403011  0.3964680458381160
  0.0138741189663460  0.0757709222665554  0.3538227297560563
  0.0633590391351517  0.4361712540240509  0.3376823199631597
  0.1062955142879403  0.6814517116359734  0.4005868317876800
  0.3142798480073313  0.6727701108057287  0.3308723312335876
  0.4173744777671602  0.1085158535875630  0.4564862322761231
  0.4688228242671165  0.5466234502904784  0.4387192517548965
  0.1828664598288888  0.9434330665804839  0.4638798545567139
  0.1322351990320541  0.5065549947617631  0.4808024639642335
  0.7516501591577934  0.7234481391877121  0.4373572396977696
  0.7927542760168650  0.0914271456360934  0.4218236416918443
  0.8498779155251266  0.3275958822717938  0.4840403242866685
  0.0638632070761671  0.3116697766588089  0.4154065160159505
  0.1587911259711114  0.7566665813195198  0.5403764831432850
  0.2094223867679461  0.1935446531382341  0.5234538738357678
  0.9242831079328381  0.5915837943124410  0.5477701055238713
  0.8728347615328845  0.1534761976095256  0.5655370859451094
  0.4917796702748737  0.3725037656282028  0.5202160134133308
  0.5373266617560586  0.7377295160264157  0.5049232462061639
  0.5900074266422067  0.9766515087122916  0.5668990981022320
  0.8043309240439416  0.9623701318735880  0.4993330915938373
  0.8984153429761199  0.4015167502214106  0.6250488294121564
  0.9495387652528019  0.8394466831597026  0.6077882918618825
  0.6649841472022968  0.2325364305161755  0.6332754951405232
  0.6021310683306933  0.8162368255474054  0.6464975633407237
  0.2353620715120599  0.0186479362640308  0.6036695059123268
  0.2777943787238329  0.3884298712411948  0.5888498216840493
  0.3277834668336539  0.6243287256334484  0.6504336079439501
  0.5489033097831352  0.6086725022639100  0.5824326960081551
  0.6346911615058159  0.0879891004650743  0.7194922248262613
  0.6737428607746110  0.5212440796386874  0.6903354275042403
  0.4100498082409331  0.9072242327975795  0.7211480410706687
  0.3134095517457945  0.4759813077074938  0.7344099549531347
  0.9622498044708281  0.6942718550398137  0.6910913512125646
  0.0273777377926686  0.0273295370942678  0.6733840064664122
  0.0581096336235235  0.2619932191430147  0.7344587592019987
  0.2782985466648483  0.2639283938759457  0.6665740177368396
 
  0.00000000E+00  0.00000000E+00  0.00000000E+00
  0.00000000E+00  0.00000000E+00  0.00000000E+00
  0.00000000E+00  0.00000000E+00  0.00000000E+00
  0.00000000E+00  0.00000000E+00  0.00000000E+00
  0.00000000E+00  0.00000000E+00  0.00000000E+00
  0.00000000E+00  0.00000000E+00  0.00000000E+00
  0.00000000E+00  0.00000000E+00  0.00000000E+00
  0.00000000E+00  0.00000000E+00  0.00000000E+00
  0.00000000E+00  0.00000000E+00  0.00000000E+00
  0.00000000E+00  0.00000000E+00  0.00000000E+00
  0.00000000E+00  0.00000000E+00  0.00000000E+00
  0.00000000E+00  0.00000000E+00  0.00000000E+00
  0.00000000E+00  0.00000000E+00  0.00000000E+00
  0.00000000E+00  0.00000000E+00  0.00000000E+00
  0.00000000E+00  0.00000000E+00  0.00000000E+00
  0.00000000E+00  0.00000000E+00  0.00000000E+00
  0.00000000E+00  0.00000000E+00  0.00000000E+00
  0.00000000E+00  0.00000000E+00  0.00000000E+00
  0.00000000E+00  0.00000000E+00  0.00000000E+00
  0.00000000E+00  0.00000000E+00  0.00000000E+00
  0.00000000E+00  0.00000000E+00  0.00000000E+00
  0.00000000E+00  0.00000000E+00  0.00000000E+00
  0.00000000E+00  0.00000000E+00  0.00000000E+00
  0.00000000E+00  0.00000000E+00  0.00000000E+00
  0.00000000E+00  0.00000000E+00  0.00000000E+00
  0.00000000E+00  0.00000000E+00  0.00000000E+00
  0.00000000E+00  0.00000000E+00  0.00000000E+00
  0.00000000E+00  0.00000000E+00  0.00000000E+00
  0.00000000E+00  0.00000000E+00  0.00000000E+00
  0.00000000E+00  0.00000000E+00  0.00000000E+00
  0.00000000E+00  0.00000000E+00  0.00000000E+00
  0.00000000E+00  0.00000000E+00  0.00000000E+00
  0.00000000E+00  0.00000000E+00  0.00000000E+00
  0.00000000E+00  0.00000000E+00  0.00000000E+00
  0.00000000E+00  0.00000000E+00  0.00000000E+00
  0.00000000E+00  0.00000000E+00  0.00000000E+00
  0.00000000E+00  0.00000000E+00  0.00000000E+00
  0.00000000E+00  0.00000000E+00  0.00000000E+00
  0.00000000E+00  0.00000000E+00  0.00000000E+00
  0.00000000E+00  0.00000000E+00  0.00000000E+00
  0.00000000E+00  0.00000000E+00  0.00000000E+00
  0.00000000E+00  0.00000000E+00  0.00000000E+00
  0.00000000E+00  0.00000000E+00  0.00000000E+00
  0.00000000E+00  0.00000000E+00  0.00000000E+00
  0.00000000E+00  0.00000000E+00  0.00000000E+00
  0.00000000E+00  0.00000000E+00  0.00000000E+00
  0.00000000E+00  0.00000000E+00  0.00000000E+00
  0.00000000E+00  0.00000000E+00  0.00000000E+00
  0.00000000E+00  0.00000000E+00  0.00000000E+00
  0.00000000E+00  0.00000000E+00  0.00000000E+00
  0.00000000E+00  0.00000000E+00  0.00000000E+00
  0.00000000E+00  0.00000000E+00  0.00000000E+00
  0.00000000E+00  0.00000000E+00  0.00000000E+00
  0.00000000E+00  0.00000000E+00  0.00000000E+00
  0.00000000E+00  0.00000000E+00  0.00000000E+00
  0.00000000E+00  0.00000000E+00  0.00000000E+00
  0.00000000E+00  0.00000000E+00  0.00000000E+00
  0.00000000E+00  0.00000000E+00  0.00000000E+00
  0.00000000E+00  0.00000000E+00  0.00000000E+00
  0.00000000E+00  0.00000000E+00  0.00000000E+00
  0.00000000E+00  0.00000000E+00  0.00000000E+00
  0.00000000E+00  0.00000000E+00  0.00000000E+00
  0.00000000E+00  0.00000000E+00  0.00000000E+00
  0.00000000E+00  0.00000000E+00  0.00000000E+00
  0.00000000E+00  0.00000000E+00  0.00000000E+00
  0.00000000E+00  0.00000000E+00  0.00000000E+00
  0.00000000E+00  0.00000000E+00  0.00000000E+00
  0.00000000E+00  0.00000000E+00  0.00000000E+00
  0.00000000E+00  0.00000000E+00  0.00000000E+00
  0.00000000E+00  0.00000000E+00  0.00000000E+00
