Generated by VASPKIT code
 1.000000
   14.7624802362000000    0.0000000000000000    0.0000000000000000
    5.9663471831999999   12.2681078871999993    0.0000000000000000
    0.0000000000000000    0.0000000000000000   34.8467577425999977
   Zn   W    O 
    48    48   192
Direct
    0.2738221679649744    0.2738908834810807    0.2920285006208442    Zn001
    0.2738221679649744    0.7738908834810807    0.2920285006208442    Zn002
    0.7738221679649744    0.2738908834810807    0.2920285006208442    Zn003
    0.7738221679649744    0.7738908834810807    0.2920285006208442    Zn004
    0.0561542445788131    0.0173379838108868    0.2973718582086406    Zn005
    0.0561542445788131    0.5173379838108868    0.2973718582086406    Zn006
    0.5561542445788131    0.0173379838108868    0.2973718582086406    Zn007
    0.5561542445788131    0.5173379838108868    0.2973718582086406    Zn008
    0.1435011506434916    0.0944265479369466    0.3666107585066476    Zn009
    0.1435011506434916    0.5944265479369466    0.3666107585066476    Zn010
    0.6435011506434916    0.0944265479369466    0.3666107585066476    Zn011
    0.6435011506434916    0.5944265479369466    0.3666107585066476    Zn012
    0.4434454843452280    0.3209312275589284    0.3814578849175717    Zn013
    0.4434454843452280    0.8209312275589284    0.3814578849175717    Zn014
    0.9434454843452280    0.3209312275589284    0.3814578849175717    Zn015
    0.9434454843452280    0.8209312275589284    0.3814578849175717    Zn016
    0.0133187854805698    0.4223199537894098    0.4522025331613699    Zn017
    0.0133187854805698    0.9223199537894098    0.4522025331613699    Zn018
    0.5133187854805699    0.4223199537894098    0.4522025331613699    Zn019
    0.5133187854805699    0.9223199537894098    0.4522025331613699    Zn020
    0.3179748180992229    0.1469808201639118    0.4648199603143931    Zn021
    0.3179748180992229    0.6469808201639118    0.4648199603143931    Zn022
    0.8179748180992229    0.1469808201639118    0.4648199603143931    Zn023
    0.8179748180992229    0.6469808201639118    0.4648199603143931    Zn024
    0.3846807885507785    0.2456928873860875    0.5351800396856068    Zn025
    0.3846807885507785    0.7456928873860875    0.5351800396856068    Zn026
    0.8846807885507785    0.2456928873860875    0.5351800396856068    Zn027
    0.8846807885507785    0.7456928873860875    0.5351800396856068    Zn028
    0.1893368211694280    0.4703537538105904    0.5477974668386298    Zn029
    0.1893368211694280    0.9703537538105904    0.5477974668386298    Zn030
    0.6893368211694280    0.4703537538105904    0.5477974668386298    Zn031
    0.6893368211694280    0.9703537538105904    0.5477974668386298    Zn032
    0.2592101222547725    0.0717424799910705    0.6185421150824286    Zn033
    0.2592101222547725    0.5717424799910705    0.6185421150824286    Zn034
    0.7592101222547725    0.0717424799910705    0.6185421150824286    Zn035
    0.7592101222547725    0.5717424799910705    0.6185421150824286    Zn036
    0.0591544559565088    0.2982471596130525    0.6333892414933525    Zn037
    0.0591544559565088    0.7982471596130525    0.6333892414933525    Zn038
    0.5591544559565089    0.2982471596130525    0.6333892414933525    Zn039
    0.5591544559565089    0.7982471596130525    0.6333892414933525    Zn040
    0.1465013620711849    0.3753357237391127    0.7026281417913590    Zn041
    0.1465013620711849    0.8753357237391127    0.7026281417913590    Zn042
    0.6465013620711849    0.3753357237391127    0.7026281417913590    Zn043
    0.6465013620711849    0.8753357237391127    0.7026281417913590    Zn044
    0.4288334386350225    0.1187828240689186    0.7079714993791559    Zn045
    0.4288334386350225    0.6187828240689186    0.7079714993791559    Zn046
    0.9288334386350225    0.1187828240689186    0.7079714993791559    Zn047
    0.9288334386350225    0.6187828240689186    0.7079714993791559    Zn048
    0.0297132880063478    0.2732005883962453    0.2872212150370905     W001
    0.0297132880063478    0.7732005883962453    0.2872212150370905     W002
    0.5297132880063478    0.2732005883962453    0.2872212150370905     W003
    0.5297132880063478    0.7732005883962453    0.2872212150370905     W004
    0.3205819426256390    0.0020020433267426    0.2903079126423784     W005
    0.3205819426256390    0.5020020433267425    0.2903079126423784     W006
    0.8205819426256390    0.0020020433267426    0.2903079126423784     W007
    0.8205819426256390    0.5020020433267425    0.2903079126423784     W008
    0.3897445032462941    0.0935683379289972    0.3688994343837773     W009
    0.3897445032462941    0.5935683379289972    0.3688994343837773     W010
    0.8897445032462941    0.0935683379289972    0.3688994343837773     W011
    0.8897445032462941    0.5935683379289972    0.3688994343837773     W012
    0.1950090045704600    0.3245643205897100    0.3806494278026542     W013
    0.1950090045704600    0.8245643205897100    0.3806494278026542     W014
    0.6950090045704600    0.3245643205897100    0.3806494278026542     W015
    0.6950090045704600    0.8245643205897100    0.3806494278026542     W016
    0.2639011128828510    0.4220605380922833    0.4525887141854430     W017
    0.2639011128828510    0.9220605380922833    0.4525887141854430     W018
    0.7639011128828510    0.4220605380922833    0.4525887141854430     W019
    0.7639011128828510    0.9220605380922833    0.4525887141854430     W020
    0.0668115754438643    0.1479086522644456    0.4635957558579065     W021
    0.0668115754438643    0.6479086522644456    0.4635957558579065     W022
    0.5668115754438643    0.1479086522644456    0.4635957558579065     W023
    0.5668115754438643    0.6479086522644456    0.4635957558579065     W024
    0.1358440311561360    0.2447650552855538    0.5364042441420929     W025
    0.1358440311561360    0.7447650552855538    0.5364042441420929     W026
    0.6358440311561360    0.2447650552855538    0.5364042441420929     W027
    0.6358440311561360    0.7447650552855538    0.5364042441420929     W028
    0.4387544937671468    0.4706131694577160    0.5474112858145571     W029
    0.4387544937671468    0.9706131694577160    0.5474112858145571     W030
    0.9387544937671468    0.4706131694577160    0.5474112858145571     W031
    0.9387544937671468    0.9706131694577160    0.5474112858145571     W032
    0.0076466020795378    0.0681093870102908    0.6193505721973456     W033
    0.0076466020795378    0.5681093870102907    0.6193505721973456     W034
    0.5076466020795378    0.0681093870102908    0.6193505721973456     W035
    0.5076466020795378    0.5681093870102907    0.6193505721973456     W036
    0.3129111034037074    0.2991053696210024    0.6311005656162229     W037
    0.3129111034037074    0.7991053696210024    0.6311005656162229     W038
    0.8129111034037074    0.2991053696210024    0.6311005656162229     W039
    0.8129111034037074    0.7991053696210024    0.6311005656162229     W040
    0.3820736640243623    0.3906716642232567    0.7096920873576228     W041
    0.3820736640243623    0.8906716642232567    0.7096920873576228     W042
    0.8820736640243623    0.3906716642232567    0.7096920873576228     W043
    0.8820736640243623    0.8906716642232567    0.7096920873576228     W044
    0.1729423185936527    0.1194731191537574    0.7127787849629094     W045
    0.1729423185936527    0.6194731191537574    0.7127787849629094     W046
    0.6729423185936527    0.1194731191537574    0.7127787849629094     W047
    0.6729423185936527    0.6194731191537574    0.7127787849629094     W048
    0.4776323753755513    0.4335740497751115    0.2827013684340468     O001
    0.4776323753755513    0.9335740497751115    0.2827013684340468     O002
    0.9776323753755513    0.4335740497751115    0.2827013684340468     O003
    0.9776323753755513    0.9335740497751115    0.2827013684340468     O004
    0.0223966222946064    0.1539063012344040    0.2680365493925099     O005
    0.0223966222946064    0.6539063012344040    0.2680365493925099     O006
    0.5223966222946064    0.1539063012344040    0.2680365493925099     O007
    0.5223966222946064    0.6539063012344040    0.2680365493925099     O008
    0.3676457312176624    0.3424450946090247    0.2870807888691752     O009
    0.3676457312176624    0.8424450946090247    0.2870807888691752     O010
    0.8676457312176624    0.3424450946090247    0.2870807888691752     O011
    0.8676457312176624    0.8424450946090247    0.2870807888691752     O012
    0.3412419998838263    0.1236367734926556    0.3089762764532611     O013
    0.3412419998838263    0.6236367734926556    0.3089762764532611     O014
    0.8412419998838263    0.1236367734926556    0.3089762764532611     O015
    0.8412419998838263    0.6236367734926556    0.3089762764532611     O016
    0.1498995809251571    0.2592836218889036    0.2710066339022036     O017
    0.1498995809251571    0.7592836218889036    0.2710066339022036     O018
    0.6498995809251571    0.2592836218889036    0.2710066339022036     O019
    0.6498995809251571    0.7592836218889036    0.2710066339022036     O020
    0.2876950074194879    0.0378038793061736    0.2435002069306577     O021
    0.2876950074194879    0.5378038793061736    0.2435002069306577     O022
    0.7876950074194879    0.0378038793061736    0.2435002069306577     O023
    0.7876950074194879    0.5378038793061736    0.2435002069306577     O024
    0.1977564093857994    0.0325717125670929    0.3122209461621945     O025
    0.1977564093857994    0.5325717125670929    0.3122209461621945     O026
    0.6977564093857994    0.0325717125670929    0.3122209461621945     O027
    0.6977564093857994    0.5325717125670929    0.3122209461621945     O028
    0.1703079660421341    0.3639879257459305    0.3308233565568586     O029
    0.1703079660421341    0.8639879257459305    0.3308233565568586     O030
    0.6703079660421341    0.3639879257459305    0.3308233565568586     O031
    0.6703079660421341    0.8639879257459305    0.3308233565568586     O032
    0.3501968425136281    0.2519076493928815    0.3692833825434831     O033
    0.3501968425136281    0.7519076493928815    0.3692833825434831     O034
    0.8501968425136281    0.2519076493928815    0.3692833825434831     O035
    0.8501968425136281    0.7519076493928815    0.3692833825434831     O036
    0.3798296107030557    0.4677120745905146    0.3541514664433316     O037
    0.3798296107030557    0.9677120745905146    0.3541514664433316     O038
    0.8798296107030557    0.4677120745905146    0.3541514664433316     O039
    0.8798296107030557    0.9677120745905146    0.3541514664433316     O040
    0.2348740601301135    0.1690890195792292    0.3765397617885571     O041
    0.2348740601301135    0.6690890195792292    0.3765397617885571     O042
    0.7348740601301135    0.1690890195792292    0.3765397617885571     O043
    0.7348740601301135    0.6690890195792292    0.3765397617885571     O044
    0.2103104509419292    0.4515966149896223    0.3953320979292628     O045
    0.2103104509419292    0.9515966149896223    0.3953320979292628     O046
    0.7103104509419292    0.4515966149896223    0.3953320979292628     O047
    0.7103104509419292    0.9515966149896223    0.3953320979292628     O048
    0.0152917576850289    0.0641974693791041    0.3512406056945486     O049
    0.0152917576850289    0.5641974693791041    0.3512406056945486     O050
    0.5152917576850289    0.0641974693791041    0.3512406056945486     O051
    0.5152917576850289    0.5641974693791041    0.3512406056945486     O052
    0.0453835231815828    0.2459041788363021    0.3375095534259320     O053
    0.0453835231815828    0.7459041788363021    0.3375095534259320     O054
    0.5453835231815828    0.2459041788363021    0.3375095534259320     O055
    0.5453835231815828    0.7459041788363021    0.3375095534259320     O056
    0.0702555899357981    0.3615987984396826    0.3992403396873507     O057
    0.0702555899357981    0.8615987984396826    0.3992403396873507     O058
    0.5702555899357982    0.3615987984396826    0.3992403396873507     O059
    0.5702555899357982    0.8615987984396826    0.3992403396873507     O060
    0.0465287749908900    0.1776579734266244    0.4131178743749505     O061
    0.0465287749908900    0.6776579734266244    0.4131178743749505     O062
    0.5465287749908900    0.1776579734266244    0.4131178743749505     O063
    0.5465287749908900    0.6776579734266244    0.4131178743749505     O064
    0.2243708234605302    0.0758883594116095    0.4545754007872810     O065
    0.2243708234605302    0.5758883594116095    0.4545754007872810     O066
    0.7243708234605302    0.0758883594116095    0.4545754007872810     O067
    0.7243708234605302    0.5758883594116095    0.4545754007872810     O068
    0.2503545756211001    0.2938842827929673    0.4376147244800982     O069
    0.2503545756211001    0.7938842827929673    0.4376147244800982     O070
    0.7503545756211001    0.2938842827929673    0.4376147244800982     O071
    0.7503545756211001    0.7938842827929673    0.4376147244800982     O072
    0.1069706013491588    0.4935594940270054    0.4619338270571509     O073
    0.1069706013491588    0.9935594940270054    0.4619338270571509     O074
    0.6069706013491588    0.4935594940270054    0.4619338270571509     O075
    0.6069706013491588    0.9935594940270054    0.4619338270571509     O076
    0.0816662270853385    0.2745799874114840    0.4785411417895695     O077
    0.0816662270853385    0.7745799874114840    0.4785411417895695     O078
    0.5816662270853385    0.2745799874114840    0.4785411417895695     O079
    0.5816662270853385    0.7745799874114840    0.4785411417895695     O080
    0.3898526005441245    0.3835906880387019    0.4347354037760098     O081
    0.3898526005441245    0.8835906880387019    0.4347354037760098     O082
    0.8898526005441245    0.3835906880387019    0.4347354037760098     O083
    0.8898526005441245    0.8835906880387019    0.4347354037760098     O084
    0.4115736607739646    0.0684524618257600    0.4195118651512393     O085
    0.4115736607739646    0.5684524618257600    0.4195118651512393     O086
    0.9115736607739646    0.0684524618257600    0.4195118651512393     O087
    0.9115736607739646    0.5684524618257600    0.4195118651512393     O088
    0.4411989059121634    0.1856267447758646    0.4818335152473662     O089
    0.4411989059121634    0.6856267447758646    0.4818335152473662     O090
    0.9411989059121634    0.1856267447758646    0.4818335152473662     O091
    0.9411989059121634    0.6856267447758646    0.4818335152473662     O092
    0.4183118116795380    0.0016031322631566    0.4968659590116526     O093
    0.4183118116795380    0.5016031322631566    0.4968659590116526     O094
    0.9183118116795380    0.0016031322631566    0.4968659590116526     O095
    0.9183118116795380    0.5016031322631566    0.4968659590116526     O096
    0.0956850053008426    0.3991142135229939    0.5380661729428501     O097
    0.0956850053008426    0.8991142135229939    0.5380661729428501     O098
    0.5956850053008426    0.3991142135229939    0.5380661729428501     O099
    0.5956850053008426    0.8991142135229939    0.5380661729428501     O100
    0.1209893795146619    0.1180937201385157    0.5214588582104291     O101
    0.1209893795146619    0.6180937201385157    0.5214588582104291     O102
    0.6209893795146619    0.1180937201385157    0.5214588582104291     O103
    0.6209893795146619    0.6180937201385157    0.5214588582104291     O104
    0.4782847831894712    0.3167853481383898    0.5454245992127186     O105
    0.4782847831894712    0.8167853481383898    0.5454245992127186     O106
    0.9782847831894712    0.3167853481383898    0.5454245992127186     O107
    0.9782847831894712    0.8167853481383898    0.5454245992127186     O108
    0.4523010309789004    0.0987894247570320    0.5623852755199020     O109
    0.4523010309789004    0.5987894247570320    0.5623852755199020     O110
    0.9523010309789004    0.0987894247570320    0.5623852755199020     O111
    0.9523010309789004    0.5987894247570320    0.5623852755199020     O112
    0.2614567007378380    0.2070469627741347    0.5181664847526327     O113
    0.2614567007378380    0.7070469627741347    0.5181664847526327     O114
    0.7614567007378380    0.2070469627741347    0.5181664847526327     O115
    0.7614567007378380    0.7070469627741347    0.5181664847526327     O116
    0.2843437949704634    0.3910705753368401    0.5031340409883481     O117
    0.2843437949704634    0.8910705753368401    0.5031340409883481     O118
    0.7843437949704634    0.3910705753368401    0.5031340409883481     O119
    0.7843437949704634    0.8910705753368401    0.5031340409883481     O120
    0.3128030060558760    0.0090830195112973    0.5652645962239903     O121
    0.3128030060558760    0.5090830195112974    0.5652645962239903     O122
    0.8128030060558760    0.0090830195112973    0.5652645962239903     O123
    0.8128030060558760    0.5090830195112974    0.5652645962239903     O124
    0.2910819458260359    0.3242212457242390    0.5804881348487606     O125
    0.2910819458260359    0.8242212457242390    0.5804881348487606     O126
    0.7910819458260359    0.3242212457242390    0.5804881348487606     O127
    0.7910819458260359    0.8242212457242390    0.5804881348487606     O128
    0.4677815464698871    0.2235846879707701    0.6234602382114428     O129
    0.4677815464698871    0.7235846879707701    0.6234602382114428     O130
    0.9677815464698871    0.2235846879707701    0.6234602382114428     O131
    0.9677815464698871    0.7235846879707701    0.6234602382114428     O132
    0.4923451557080688    0.4410770926103779    0.6046679020707382     O133
    0.4923451557080688    0.9410770926103779    0.6046679020707382     O134
    0.9923451557080688    0.4410770926103779    0.6046679020707382     O135
    0.9923451557080688    0.9410770926103779    0.6046679020707382     O136
    0.3524587641363732    0.1407660581571180    0.6307166174565172     O137
    0.3524587641363732    0.6407660581571180    0.6307166174565172     O138
    0.8524587641363732    0.1407660581571180    0.6307166174565172     O139
    0.8524587641363732    0.6407660581571180    0.6307166174565172     O140
    0.3228259959469422    0.4249616329594883    0.6458485335566695     O141
    0.3228259959469422    0.9249616329594883    0.6458485335566695     O142
    0.8228259959469422    0.4249616329594883    0.6458485335566695     O143
    0.8228259959469422    0.9249616329594883    0.6458485335566695     O144
    0.1324000167142031    0.0310749091603174    0.6007596603126493     O145
    0.1324000167142031    0.5310749091603174    0.6007596603126493     O146
    0.6324000167142031    0.0310749091603174    0.6007596603126493     O147
    0.6324000167142031    0.5310749091603174    0.6007596603126493     O148
    0.1561268316591080    0.2150157341233749    0.5868821256250489     O149
    0.1561268316591080    0.7150157341233749    0.5868821256250489     O150
    0.6561268316591080    0.2150157341233749    0.5868821256250489     O151
    0.6561268316591080    0.7150157341233749    0.5868821256250489     O152
    0.1873638489149715    0.3284762381708983    0.6487593943054510     O153
    0.1873638489149715    0.8284762381708983    0.6487593943054510     O154
    0.6873638489149715    0.3284762381708983    0.6487593943054510     O155
    0.6873638489149715    0.8284762381708983    0.6487593943054510     O156
    0.1572720834184177    0.1467695287136972    0.6624904465740677     O157
    0.1572720834184177    0.6467695287136972    0.6624904465740677     O158
    0.6572720834184177    0.1467695287136972    0.6624904465740677     O159
    0.6572720834184177    0.6467695287136972    0.6624904465740677     O160
    0.3350098754323354    0.0502286129909756    0.7129192111308252     O161
    0.3350098754323354    0.5502286129909755    0.7129192111308252     O162
    0.8350098754323354    0.0502286129909756    0.7129192111308252     O163
    0.8350098754323354    0.5502286129909755    0.7129192111308252     O164
    0.3614136067661751    0.2690369340573440    0.6910237235467389     O165
    0.3614136067661751    0.7690369340573440    0.6910237235467389     O166
    0.8614136067661751    0.2690369340573440    0.6910237235467389     O167
    0.8614136067661751    0.7690369340573440    0.6910237235467389     O168
    0.2250232312244491    0.4590996578248887    0.7172986315659532     O169
    0.2250232312244491    0.9590996578248887    0.7172986315659532     O170
    0.7250232312244491    0.4590996578248887    0.7172986315659532     O171
    0.7250232312244491    0.9590996578248887    0.7172986315659532     O172
    0.1802589843553950    0.2387674063155953    0.7319634506074898     O173
    0.1802589843553950    0.7387674063155953    0.7319634506074898     O174
    0.6802589843553950    0.2387674063155953    0.7319634506074898     O175
    0.6802589843553950    0.7387674063155953    0.7319634506074898     O176
    0.0048991972142008    0.3601019949829098    0.6877790538378055     O177
    0.0048991972142008    0.8601019949829098    0.6877790538378055     O178
    0.5048991972142010    0.3601019949829098    0.6877790538378055     O179
    0.5048991972142010    0.8601019949829098    0.6877790538378055     O180
    0.0323476405578665    0.0286857818540696    0.6691766434431421     O181
    0.0323476405578665    0.5286857818540696    0.6691766434431421     O182
    0.5323476405578664    0.0286857818540696    0.6691766434431421     O183
    0.5323476405578664    0.5286857818540696    0.6691766434431421     O184
    0.0527560257248408    0.1333900856610961    0.7289933660977949     O185
    0.0527560257248408    0.6333900856610961    0.7289933660977949     O186
    0.5527560257248407    0.1333900856610961    0.7289933660977949     O187
    0.5527560257248407    0.6333900856610961    0.7289933660977949     O188
    0.9149605992305128    0.3548698282938263    0.7564997930693425     O189
    0.9149605992305128    0.8548698282938263    0.7564997930693425     O190
    0.4149605992305128    0.3548698282938263    0.7564997930693425     O191
    0.4149605992305128    0.8548698282938263    0.7564997930693425     O192
