# Compound: Zn6W8O32. Old comment: O32W8
   1.00000000000000     
     4.9265814974000000    0.0000000000000000    0.0000000000000000
     0.0000000000000000    5.7182516300000001    0.0000000000000000
     0.0000000000000000    0.0000000000000000   37.3369731617000014
   Zn   W    O 
     6     8    32
Direct
  0.7179235149001143  0.6713213903499440  0.3869436057886155
  0.2179235149001140  0.3286786096500562  0.3869436057886155
  0.7102234732000028  0.6755889107766513  0.5130506205000032
  0.2102234732000028  0.3244110892233485  0.5130506205000032
  0.7025234314998842  0.6713213903499440  0.6391576352113910
  0.2025234314998845  0.3286786096500562  0.6391576352113910
  0.7222483538460531  0.1923163793042223  0.3231181694062006
  0.2222483538460530  0.8076836206957776  0.3231181694062006
  0.7147514082734613  0.1795079498264097  0.4504801745214640
  0.2147514082734613  0.8204920501735897  0.4504801745214640
  0.7056955380265425  0.1795079498264097  0.5756210664785422
  0.2056955380265425  0.8204920501735897  0.5756210664785422
  0.6981985925539453  0.1923163793042223  0.7029830715938051
  0.1981985925539455  0.8076836206957776  0.7029830715938051
  0.0401835972889123  0.0895858850100983  0.3006157806933543
  0.4072717662031841  0.1171983367433483  0.3528794663638196
  0.9072717662031842  0.8828016632566518  0.3528794663638196
  0.5401835972889124  0.9104141149899017  0.3006157806933543
  0.5982244451236691  0.3947407319487955  0.2927234607007982
  0.8728110986199132  0.3764751886242036  0.3590228258213167
  0.3728110986199131  0.6235248113757963  0.3590228258213167
  0.0982244451236691  0.6052592680512041  0.2927234607007982
  0.0339525720487906  0.1077300061091951  0.4235594081217929
  0.3962727345167733  0.1051407121258222  0.4778463701233608
  0.8962727345167731  0.8948592878741779  0.4778463701233608
  0.5339525720487910  0.8922699938908044  0.4235594081217929
  0.5588964387160521  0.3754893037768038  0.4186016813045781
  0.8634245357318705  0.3765678867052518  0.4828322129312685
  0.3634245357318710  0.6234321132947480  0.4828322129312685
  0.0588964387160519  0.6245106962231961  0.4186016813045781
  0.0241742118832254  0.1051407121258222  0.5482548708766383
  0.3864943743512078  0.1077300061091951  0.6025418328782060
  0.8864943743512075  0.8922699938908044  0.6025418328782060
  0.5241742118832324  0.8948592878741779  0.5482548708766383
  0.5570224105681333  0.3765678867052518  0.5432690281687252
  0.8615505076839464  0.3754893037768038  0.6074995597954159
  0.3615505076839468  0.6245106962231961  0.6074995597954159
  0.0570224105681329  0.6234321132947480  0.5432690281687252
  0.0131751800968195  0.1171983367433483  0.6732217746361798
  0.3802633491110860  0.0895858850100983  0.7254854603066453
  0.8802633491110861  0.9104141149899017  0.7254854603066453
  0.5131751800968196  0.8828016632566518  0.6732217746361798
  0.5476358476800834  0.3764751886242036  0.6670784152786776
  0.8222225012763293  0.3947407319487955  0.7333777803991957
  0.3222225012763295  0.6052592680512041  0.7333777803991957
  0.0476358476800835  0.6235248113757963  0.6670784152786776
 
  0.00000000E+00  0.00000000E+00  0.00000000E+00
  0.00000000E+00  0.00000000E+00  0.00000000E+00
  0.00000000E+00  0.00000000E+00  0.00000000E+00
  0.00000000E+00  0.00000000E+00  0.00000000E+00
  0.00000000E+00  0.00000000E+00  0.00000000E+00
  0.00000000E+00  0.00000000E+00  0.00000000E+00
  0.00000000E+00  0.00000000E+00  0.00000000E+00
  0.00000000E+00  0.00000000E+00  0.00000000E+00
  0.00000000E+00  0.00000000E+00  0.00000000E+00
  0.00000000E+00  0.00000000E+00  0.00000000E+00
  0.00000000E+00  0.00000000E+00  0.00000000E+00
  0.00000000E+00  0.00000000E+00  0.00000000E+00
  0.00000000E+00  0.00000000E+00  0.00000000E+00
  0.00000000E+00  0.00000000E+00  0.00000000E+00
  0.00000000E+00  0.00000000E+00  0.00000000E+00
  0.00000000E+00  0.00000000E+00  0.00000000E+00
  0.00000000E+00  0.00000000E+00  0.00000000E+00
  0.00000000E+00  0.00000000E+00  0.00000000E+00
  0.00000000E+00  0.00000000E+00  0.00000000E+00
  0.00000000E+00  0.00000000E+00  0.00000000E+00
  0.00000000E+00  0.00000000E+00  0.00000000E+00
  0.00000000E+00  0.00000000E+00  0.00000000E+00
  0.00000000E+00  0.00000000E+00  0.00000000E+00
  0.00000000E+00  0.00000000E+00  0.00000000E+00
  0.00000000E+00  0.00000000E+00  0.00000000E+00
  0.00000000E+00  0.00000000E+00  0.00000000E+00
  0.00000000E+00  0.00000000E+00  0.00000000E+00
  0.00000000E+00  0.00000000E+00  0.00000000E+00
  0.00000000E+00  0.00000000E+00  0.00000000E+00
  0.00000000E+00  0.00000000E+00  0.00000000E+00
  0.00000000E+00  0.00000000E+00  0.00000000E+00
  0.00000000E+00  0.00000000E+00  0.00000000E+00
  0.00000000E+00  0.00000000E+00  0.00000000E+00
  0.00000000E+00  0.00000000E+00  0.00000000E+00
  0.00000000E+00  0.00000000E+00  0.00000000E+00
  0.00000000E+00  0.00000000E+00  0.00000000E+00
  0.00000000E+00  0.00000000E+00  0.00000000E+00
  0.00000000E+00  0.00000000E+00  0.00000000E+00
  0.00000000E+00  0.00000000E+00  0.00000000E+00
  0.00000000E+00  0.00000000E+00  0.00000000E+00
  0.00000000E+00  0.00000000E+00  0.00000000E+00
  0.00000000E+00  0.00000000E+00  0.00000000E+00
  0.00000000E+00  0.00000000E+00  0.00000000E+00
  0.00000000E+00  0.00000000E+00  0.00000000E+00
  0.00000000E+00  0.00000000E+00  0.00000000E+00
  0.00000000E+00  0.00000000E+00  0.00000000E+00
