# Compound: Zn8W6O32. Old comment: O32W6
   1.00000000000000     
     4.9265814974000000    0.0000000000000000    0.0000000000000000
     0.0000000000000000    5.7182516300000001    0.0000000000000000
     0.0000000000000000    0.0000000000000000   37.3369731617000014
   Zn   W    O 
     8     6    32
Direct
  0.7377780511832800  0.7177272855358113  0.2675841417254149
  0.2377780511832805  0.2822727144641896  0.2675841417254149
  0.7182745587337667  0.6765654456385195  0.4006185143487890
  0.2182745587337668  0.3234345543614809  0.4006185143487890
  0.7098836185662318  0.6765654456385195  0.5260207532512062
  0.2098836185662317  0.3234345543614809  0.5260207532512062
  0.6903801262167203  0.7177272855358113  0.6590551258745813
  0.1903801262167197  0.2822727144641896  0.6590551258745813
  0.7203414746633131  0.1847144874464555  0.3383208341563842
  0.2203414746633122  0.8152855125535444  0.3383208341563842
  0.7140790886999966  0.1797861825958011  0.4633196337999976
  0.2140790886999966  0.8202138174041989  0.4633196337999976
  0.7078167027366872  0.1847144874464555  0.5883184334436118
  0.2078167027366881  0.8152855125535444  0.5883184334436118
  0.0437460597743925  0.1096931262290251  0.3105395276774928
  0.4558554125080030  0.0000747195488703  0.2548254451258180
  0.9558554125080023  0.9999252804511298  0.2548254451258180
  0.5437460597743923  0.8903068737709749  0.3105395276774928
  0.5630459295062532  0.3686232128338121  0.3066038307468993
  0.9790875499401654  0.4889969920981417  0.2431749959165805
  0.4790875499401661  0.5110030079018579  0.2431749959165805
  0.0630459295062539  0.6313767871661883  0.3066038307468993
  0.0328231143698667  0.1060932220698621  0.4361575867535252
  0.4047213824671524  0.1032695308436072  0.3653402236558934
  0.9047213824671516  0.8967304691563928  0.3653402236558934
  0.5328231143698664  0.8939067779301383  0.4361575867535252
  0.5638546082447975  0.3756856733427004  0.4310027196547435
  0.8743700737814334  0.3807707169705151  0.3704679404235385
  0.3743700737814332  0.6192292830294849  0.3704679404235385
  0.0638546082447968  0.6243143266572992  0.4310027196547435
  0.0234367949328483  0.1032695308436071  0.5612990439441092
  0.3953350629301320  0.1060932220698621  0.4904816808464772
  0.8953350629301321  0.8939067779301383  0.4904816808464772
  0.5234367949328487  0.8967304691563928  0.5612990439441092
  0.5537881036185669  0.3807707169705152  0.5561713270764550
  0.8643035691552028  0.3756856733427004  0.4956365478452500
  0.3643035691552032  0.6243143266572992  0.4956365478452500
  0.0537881036185669  0.6192292830294849  0.5561713270764550
 -0.0276972351080027  0.0000747195488703  0.6718138224741853
  0.3844121175256057  0.1096931262290251  0.6160997399225098
  0.8844121175256062  0.8903068737709748  0.6160997399225098
  0.4723027648919974  0.9999252804511298  0.6718138224741853
  0.4490706274598343  0.4889969920981417  0.6834642715834208
  0.8651122477937453  0.3686232128338121  0.6200354367530932
  0.3651122477937445  0.6313767871661883  0.6200354367530932
 -0.0509293725401653  0.5110030079018579  0.6834642715834208
 
  0.00000000E+00  0.00000000E+00  0.00000000E+00
  0.00000000E+00  0.00000000E+00  0.00000000E+00
  0.00000000E+00  0.00000000E+00  0.00000000E+00
  0.00000000E+00  0.00000000E+00  0.00000000E+00
  0.00000000E+00  0.00000000E+00  0.00000000E+00
  0.00000000E+00  0.00000000E+00  0.00000000E+00
  0.00000000E+00  0.00000000E+00  0.00000000E+00
  0.00000000E+00  0.00000000E+00  0.00000000E+00
  0.00000000E+00  0.00000000E+00  0.00000000E+00
  0.00000000E+00  0.00000000E+00  0.00000000E+00
  0.00000000E+00  0.00000000E+00  0.00000000E+00
  0.00000000E+00  0.00000000E+00  0.00000000E+00
  0.00000000E+00  0.00000000E+00  0.00000000E+00
  0.00000000E+00  0.00000000E+00  0.00000000E+00
  0.00000000E+00  0.00000000E+00  0.00000000E+00
  0.00000000E+00  0.00000000E+00  0.00000000E+00
  0.00000000E+00  0.00000000E+00  0.00000000E+00
  0.00000000E+00  0.00000000E+00  0.00000000E+00
  0.00000000E+00  0.00000000E+00  0.00000000E+00
  0.00000000E+00  0.00000000E+00  0.00000000E+00
  0.00000000E+00  0.00000000E+00  0.00000000E+00
  0.00000000E+00  0.00000000E+00  0.00000000E+00
  0.00000000E+00  0.00000000E+00  0.00000000E+00
  0.00000000E+00  0.00000000E+00  0.00000000E+00
  0.00000000E+00  0.00000000E+00  0.00000000E+00
  0.00000000E+00  0.00000000E+00  0.00000000E+00
  0.00000000E+00  0.00000000E+00  0.00000000E+00
  0.00000000E+00  0.00000000E+00  0.00000000E+00
  0.00000000E+00  0.00000000E+00  0.00000000E+00
  0.00000000E+00  0.00000000E+00  0.00000000E+00
  0.00000000E+00  0.00000000E+00  0.00000000E+00
  0.00000000E+00  0.00000000E+00  0.00000000E+00
  0.00000000E+00  0.00000000E+00  0.00000000E+00
  0.00000000E+00  0.00000000E+00  0.00000000E+00
  0.00000000E+00  0.00000000E+00  0.00000000E+00
  0.00000000E+00  0.00000000E+00  0.00000000E+00
  0.00000000E+00  0.00000000E+00  0.00000000E+00
  0.00000000E+00  0.00000000E+00  0.00000000E+00
  0.00000000E+00  0.00000000E+00  0.00000000E+00
  0.00000000E+00  0.00000000E+00  0.00000000E+00
  0.00000000E+00  0.00000000E+00  0.00000000E+00
  0.00000000E+00  0.00000000E+00  0.00000000E+00
  0.00000000E+00  0.00000000E+00  0.00000000E+00
  0.00000000E+00  0.00000000E+00  0.00000000E+00
  0.00000000E+00  0.00000000E+00  0.00000000E+00
  0.00000000E+00  0.00000000E+00  0.00000000E+00
