# Compound: Zn6W8O28. Old comment: O28W8
   1.00000000000000     
     4.9265814974000000    0.0000000000000000    0.0000000000000000
     0.0000000000000000    5.7182516300000001    0.0000000000000000
     0.0000000000000000    0.0000000000000000   37.3369731617000014
   Zn   W    O 
     6     8    28
Direct
  0.7078018399595242  0.6447684399841883  0.3942824218046725
  0.2078018399595246  0.3552315600158119  0.3942824218046725
  0.7097284860000030  0.6741088151009124  0.5194351271000031
  0.2097284860000030  0.3258911848990871  0.5194351271000031
  0.7116551319404730  0.6447684399841883  0.6445878323953338
  0.2116551319404726  0.3552315600158119  0.6445878323953338
  0.7784786874709237  0.1110455591713352  0.3361413770024462
  0.2784786874709240  0.8889544408286651  0.3361413770024462
  0.7167138438800400  0.1768699405047582  0.4568586600533184
  0.2167138438800403  0.8231300594952417  0.4568586600533184
  0.7027431280199643  0.1768699405047582  0.5820115941466870
  0.2027431280199640  0.8231300594952417  0.5820115941466870
  0.6409782844290735  0.1110455591713352  0.7027288771975596
  0.1409782844290736  0.8889544408286651  0.7027288771975596
  0.0398664737528524  0.0339363164772470  0.3009962332475222
  0.4151772003381367  0.1389520253433187  0.3634510013787549
  0.9151772003381369  0.8610479746566814  0.3634510013787549
  0.5398664737528526  0.9660636835227527  0.3009962332475222
  0.0342342929960900  0.1086165339807424  0.4295488301259188
  0.3957445232679748  0.1064032700799656  0.4839794716669661
  0.8957445232679745  0.8935967299200346  0.4839794716669661
  0.5342342929960903  0.8913834660192580  0.4295488301259188
  0.5683870958023942  0.3771805293228597  0.4247345773532382
  0.8854569909697174  0.3798198336810258  0.3588206095010751
  0.3854569909697176  0.6201801663189743  0.3588206095010751
  0.0683870958023943  0.6228194706771403  0.4247345773532382
  0.0237124486320225  0.1064032700799656  0.5548907825330325
  0.3852226790039087  0.1086165339807424  0.6093214240740801
  0.8852226790039087  0.8913834660192580  0.6093214240740801
  0.5237124486320227  0.8935967299200346  0.5548907825330325
  0.5546213962245434  0.3740130071491690  0.5496252676363981
  0.8648355756754609  0.3740130071491690  0.4892449866635961
  0.3648355756754615  0.6259869928508313  0.4892449866635961
  0.0546213962245431  0.6259869928508313  0.5496252676363981
  0.0042797715618674  0.1389520253433187  0.6754192528212446
  0.3795904982471463  0.0339363164772470  0.7378740209524770
  0.8795904982471464  0.9660636835227527  0.7378740209524770
  0.5042797715618674  0.8610479746566814  0.6754192528212446
  0.5339999809302798  0.3798198336810258  0.6800496447989188
  0.8510698760976030  0.3771805293228597  0.6141356769467556
  0.3510698760976028  0.6228194706771403  0.6141356769467556
  0.0339999809302795  0.6201801663189743  0.6800496447989188
 
  0.00000000E+00  0.00000000E+00  0.00000000E+00
  0.00000000E+00  0.00000000E+00  0.00000000E+00
  0.00000000E+00  0.00000000E+00  0.00000000E+00
  0.00000000E+00  0.00000000E+00  0.00000000E+00
  0.00000000E+00  0.00000000E+00  0.00000000E+00
  0.00000000E+00  0.00000000E+00  0.00000000E+00
  0.00000000E+00  0.00000000E+00  0.00000000E+00
  0.00000000E+00  0.00000000E+00  0.00000000E+00
  0.00000000E+00  0.00000000E+00  0.00000000E+00
  0.00000000E+00  0.00000000E+00  0.00000000E+00
  0.00000000E+00  0.00000000E+00  0.00000000E+00
  0.00000000E+00  0.00000000E+00  0.00000000E+00
  0.00000000E+00  0.00000000E+00  0.00000000E+00
  0.00000000E+00  0.00000000E+00  0.00000000E+00
  0.00000000E+00  0.00000000E+00  0.00000000E+00
  0.00000000E+00  0.00000000E+00  0.00000000E+00
  0.00000000E+00  0.00000000E+00  0.00000000E+00
  0.00000000E+00  0.00000000E+00  0.00000000E+00
  0.00000000E+00  0.00000000E+00  0.00000000E+00
  0.00000000E+00  0.00000000E+00  0.00000000E+00
  0.00000000E+00  0.00000000E+00  0.00000000E+00
  0.00000000E+00  0.00000000E+00  0.00000000E+00
  0.00000000E+00  0.00000000E+00  0.00000000E+00
  0.00000000E+00  0.00000000E+00  0.00000000E+00
  0.00000000E+00  0.00000000E+00  0.00000000E+00
  0.00000000E+00  0.00000000E+00  0.00000000E+00
  0.00000000E+00  0.00000000E+00  0.00000000E+00
  0.00000000E+00  0.00000000E+00  0.00000000E+00
  0.00000000E+00  0.00000000E+00  0.00000000E+00
  0.00000000E+00  0.00000000E+00  0.00000000E+00
  0.00000000E+00  0.00000000E+00  0.00000000E+00
  0.00000000E+00  0.00000000E+00  0.00000000E+00
  0.00000000E+00  0.00000000E+00  0.00000000E+00
  0.00000000E+00  0.00000000E+00  0.00000000E+00
  0.00000000E+00  0.00000000E+00  0.00000000E+00
  0.00000000E+00  0.00000000E+00  0.00000000E+00
  0.00000000E+00  0.00000000E+00  0.00000000E+00
  0.00000000E+00  0.00000000E+00  0.00000000E+00
  0.00000000E+00  0.00000000E+00  0.00000000E+00
  0.00000000E+00  0.00000000E+00  0.00000000E+00
  0.00000000E+00  0.00000000E+00  0.00000000E+00
  0.00000000E+00  0.00000000E+00  0.00000000E+00
