# Compound: Zn8W6O28. Old comment: O28W6
   1.00000000000000     
     4.9265814974000000    0.0000000000000000    0.0000000000000000
     0.0000000000000000    5.7182516300000001    0.0000000000000000
     0.0000000000000000    0.0000000000000000   37.3369731617000014
   Zn   W    O 
     8     6    28
Direct
  0.7157347930565173  0.6456720512470880  0.2696031727741398
  0.2157347930565174  0.3543279487529122  0.2696031727741398
  0.7179936569495697  0.6750898277486606  0.3943034638588931
  0.2179936569495700  0.3249101722513392  0.3943034638588931
  0.7111544948504300  0.6750898277486606  0.5195667903411133
  0.2111544948504298  0.3249101722513392  0.5195667903411133
  0.7134133587434824  0.6456720512470880  0.6442670814258660
  0.2134133587434823  0.3543279487529122  0.6442670814258660
  0.7287727939529287  0.1743115444308807  0.3322512291986218
  0.2287727939529287  0.8256884555691194  0.3322512291986218
  0.7145740759000034  0.1798380282138453  0.4569351271000031
  0.2145740759000034  0.8201619717861547  0.4569351271000031
  0.7003753578470711  0.1743115444308807  0.5816190250013846
  0.2003753578470711  0.8256884555691194  0.5816190250013846
  0.0437637212410362  0.1148179881096066  0.3040877170274368
  0.4046141915370639  0.1014362365668770  0.3595619066101763
  0.9046141915370638  0.8985637634331233  0.3595619066101763
  0.5437637212410362  0.8851820118903937  0.3040877170274368
  0.5525172767010313  0.3582481957850499  0.3007997608710281
  0.9213475375887572  0.4360217856343396  0.2392045357664505
  0.4213475375887575  0.5639782143656602  0.2392045357664505
  0.0525172767010313  0.6417518042149503  0.3007997608710281
  0.0330740610479490  0.1061521280183806  0.4297588532807333
  0.3960740907520509  0.1061521280183806  0.4841114009192657
  0.8960740907520508  0.8938478719816190  0.4841114009192657
  0.5330740610479490  0.8938478719816190  0.4297588532807333
  0.5642689169748500  0.3761560240112693  0.4246739236782942
  0.8699608502918726  0.3791702865393332  0.3639639614553121
  0.3699608502918731  0.6208297134606670  0.3639639614553121
  0.0642689169748498  0.6238439759887310  0.4246739236782942
  0.0245339602629359  0.1014362365668770  0.5543083475898228
  0.3853844306589653  0.1148179881096066  0.6097825371725626
  0.8853844306589653  0.8851820118903937  0.6097825371725626
  0.5245339602629360  0.8985637634331233  0.5543083475898228
  0.5591873015081271  0.3791702865393332  0.5499062928446816
  0.8648792348251497  0.3761560240112693  0.4891963306216995
  0.3648792348251500  0.6238439759887310  0.4891963306216995
  0.0591873015081267  0.6208297134606670  0.5499062928446816
  0.5078006142112426  0.4360217856343396  0.6746657185335428
  0.8766308750989684  0.3582481957850499  0.6130704934289654
  0.3766308750989684  0.6417518042149503  0.6130704934289654
  0.0078006142112422  0.5639782143656602  0.6746657185335428
 
  0.00000000E+00  0.00000000E+00  0.00000000E+00
  0.00000000E+00  0.00000000E+00  0.00000000E+00
  0.00000000E+00  0.00000000E+00  0.00000000E+00
  0.00000000E+00  0.00000000E+00  0.00000000E+00
  0.00000000E+00  0.00000000E+00  0.00000000E+00
  0.00000000E+00  0.00000000E+00  0.00000000E+00
  0.00000000E+00  0.00000000E+00  0.00000000E+00
  0.00000000E+00  0.00000000E+00  0.00000000E+00
  0.00000000E+00  0.00000000E+00  0.00000000E+00
  0.00000000E+00  0.00000000E+00  0.00000000E+00
  0.00000000E+00  0.00000000E+00  0.00000000E+00
  0.00000000E+00  0.00000000E+00  0.00000000E+00
  0.00000000E+00  0.00000000E+00  0.00000000E+00
  0.00000000E+00  0.00000000E+00  0.00000000E+00
  0.00000000E+00  0.00000000E+00  0.00000000E+00
  0.00000000E+00  0.00000000E+00  0.00000000E+00
  0.00000000E+00  0.00000000E+00  0.00000000E+00
  0.00000000E+00  0.00000000E+00  0.00000000E+00
  0.00000000E+00  0.00000000E+00  0.00000000E+00
  0.00000000E+00  0.00000000E+00  0.00000000E+00
  0.00000000E+00  0.00000000E+00  0.00000000E+00
  0.00000000E+00  0.00000000E+00  0.00000000E+00
  0.00000000E+00  0.00000000E+00  0.00000000E+00
  0.00000000E+00  0.00000000E+00  0.00000000E+00
  0.00000000E+00  0.00000000E+00  0.00000000E+00
  0.00000000E+00  0.00000000E+00  0.00000000E+00
  0.00000000E+00  0.00000000E+00  0.00000000E+00
  0.00000000E+00  0.00000000E+00  0.00000000E+00
  0.00000000E+00  0.00000000E+00  0.00000000E+00
  0.00000000E+00  0.00000000E+00  0.00000000E+00
  0.00000000E+00  0.00000000E+00  0.00000000E+00
  0.00000000E+00  0.00000000E+00  0.00000000E+00
  0.00000000E+00  0.00000000E+00  0.00000000E+00
  0.00000000E+00  0.00000000E+00  0.00000000E+00
  0.00000000E+00  0.00000000E+00  0.00000000E+00
  0.00000000E+00  0.00000000E+00  0.00000000E+00
  0.00000000E+00  0.00000000E+00  0.00000000E+00
  0.00000000E+00  0.00000000E+00  0.00000000E+00
  0.00000000E+00  0.00000000E+00  0.00000000E+00
  0.00000000E+00  0.00000000E+00  0.00000000E+00
  0.00000000E+00  0.00000000E+00  0.00000000E+00
  0.00000000E+00  0.00000000E+00  0.00000000E+00
