# Compound: Zn8W6O24. Old comment: O24W6
   1.00000000000000     
     4.9265814974000000    0.0000000000000000    0.0000000000000000
     0.0000000000000000    5.7182516300000001    0.0000000000000000
     0.0000000000000000    0.0000000000000000   37.3369731617000014
   Zn   W    O 
     8     6    24
Direct
  0.7130483964308079  0.6333715807132625  0.2646413488521261
  0.2130483964308076  0.3666284192867368  0.2646413488521261
  0.7210334928283229  0.6748132060899318  0.3879777977077078
  0.2210334928283226  0.3251867939100684  0.3879777977077078
  0.7091046334716782  0.6748132060899318  0.5131234432922988
  0.2091046334716784  0.3251867939100684  0.5131234432922988
  0.7170897297691914  0.6333715807132625  0.6364598921478806
  0.2170897297691916  0.3666284192867368  0.6364598921478806
  0.7345123655449988  0.1722636754401684  0.3259123833667556
  0.2345123655449986  0.8277363245598315  0.3259123833667556
  0.7150690631000032  0.1795939477955593  0.4505506205000032
  0.2150690631000032  0.8204060522044410  0.4505506205000032
  0.6956257606550005  0.1722636754401684  0.5751888576332506
  0.1956257606550007  0.8277363245598315  0.5751888576332506
  0.0428053276813666  0.1125862923755912  0.2968722436554425
  0.4042316841346170  0.1037695238323034  0.3529472302004416
  0.9042316841346171  0.8962304761676965  0.3529472302004416
  0.5428053276813661  0.8874137076244091  0.2968722436554425
  0.5617413604743677  0.3631093907039599  0.2942269882456028
  0.8757162369222935  0.3771986665239704  0.3574695171770764
  0.3757162369222936  0.6228013334760300  0.3574695171770764
  0.0617413604743679  0.6368906092960399  0.2942269882456028
  0.0338357064961507  0.1061513468524923  0.4233952293453986
  0.3963024198038502  0.1061513468524923  0.4777060116546006
  0.8963024198038502  0.8938486531475076  0.4777060116546006
  0.5338357064961509  0.8938486531475076  0.4233952293453986
  0.5660730961275908  0.3764610228883884  0.4182346564132646
  0.8640650300724084  0.3764610228883884  0.4828665846867293
  0.3640650300724091  0.6235389771116115  0.4828665846867293
  0.0660730961275902  0.6235389771116115  0.4182346564132646
  0.0259064420653822  0.1037695238323034  0.5481540107995576
  0.3873327986186343  0.1125862923755912  0.6042289973445566
  0.8873327986186349  0.8874137076244091  0.6042289973445566
  0.5259064420653893  0.8962304761676965  0.5481540107995576
  0.5544218892777057  0.3771986665239704  0.5436317239229174
  0.8683967658256333  0.3631093907039599  0.6068742528543910
  0.3683967658256330  0.6368906092960399  0.6068742528543910
  0.0544218892777057  0.6228013334760300  0.5436317239229174
 
  0.00000000E+00  0.00000000E+00  0.00000000E+00
  0.00000000E+00  0.00000000E+00  0.00000000E+00
  0.00000000E+00  0.00000000E+00  0.00000000E+00
  0.00000000E+00  0.00000000E+00  0.00000000E+00
  0.00000000E+00  0.00000000E+00  0.00000000E+00
  0.00000000E+00  0.00000000E+00  0.00000000E+00
  0.00000000E+00  0.00000000E+00  0.00000000E+00
  0.00000000E+00  0.00000000E+00  0.00000000E+00
  0.00000000E+00  0.00000000E+00  0.00000000E+00
  0.00000000E+00  0.00000000E+00  0.00000000E+00
  0.00000000E+00  0.00000000E+00  0.00000000E+00
  0.00000000E+00  0.00000000E+00  0.00000000E+00
  0.00000000E+00  0.00000000E+00  0.00000000E+00
  0.00000000E+00  0.00000000E+00  0.00000000E+00
  0.00000000E+00  0.00000000E+00  0.00000000E+00
  0.00000000E+00  0.00000000E+00  0.00000000E+00
  0.00000000E+00  0.00000000E+00  0.00000000E+00
  0.00000000E+00  0.00000000E+00  0.00000000E+00
  0.00000000E+00  0.00000000E+00  0.00000000E+00
  0.00000000E+00  0.00000000E+00  0.00000000E+00
  0.00000000E+00  0.00000000E+00  0.00000000E+00
  0.00000000E+00  0.00000000E+00  0.00000000E+00
  0.00000000E+00  0.00000000E+00  0.00000000E+00
  0.00000000E+00  0.00000000E+00  0.00000000E+00
  0.00000000E+00  0.00000000E+00  0.00000000E+00
  0.00000000E+00  0.00000000E+00  0.00000000E+00
  0.00000000E+00  0.00000000E+00  0.00000000E+00
  0.00000000E+00  0.00000000E+00  0.00000000E+00
  0.00000000E+00  0.00000000E+00  0.00000000E+00
  0.00000000E+00  0.00000000E+00  0.00000000E+00
  0.00000000E+00  0.00000000E+00  0.00000000E+00
  0.00000000E+00  0.00000000E+00  0.00000000E+00
  0.00000000E+00  0.00000000E+00  0.00000000E+00
  0.00000000E+00  0.00000000E+00  0.00000000E+00
  0.00000000E+00  0.00000000E+00  0.00000000E+00
  0.00000000E+00  0.00000000E+00  0.00000000E+00
  0.00000000E+00  0.00000000E+00  0.00000000E+00
  0.00000000E+00  0.00000000E+00  0.00000000E+00
