# Compound: Zn6W8O24. Old comment: O24W8
   1.00000000000000     
     4.9265814974000000    0.0000000000000000    0.0000000000000000
     0.0000000000000000    5.7182516300000001    0.0000000000000000
     0.0000000000000000    0.0000000000000000   37.3369731617000014
   Zn   W    O 
     6     8    24
Direct
  0.7184939482350194  0.6860046914621237  0.4023629742215776
  0.2184939482350195  0.3139953085378752  0.4023629742215776
  0.7092334987000015  0.6746580496715547  0.5258196337999976
  0.2092334987000015  0.3253419503284456  0.5258196337999976
  0.6999730492649783  0.6860046914621238  0.6492762933784181
  0.1999730492649782  0.3139953085378752  0.6492762933784181
  0.2056771470775681  0.2504520907386512  0.3354052586533464
  0.7056771470775683  0.7495479092613488  0.3354052586533464
  0.7091227599410883  0.1820872214312625  0.4630631095556836
  0.2091227599410886  0.8179127785687368  0.4630631095556836
  0.7093442375589094  0.1820872214312625  0.5885761580443115
  0.2093442375589091  0.8179127785687368  0.5885761580443115
  0.2127898504224297  0.2504520907386510  0.7162340089466487
 -0.2872101495775705  0.7495479092613487  0.7162340089466487
  0.0243146248465129  0.0985764541920856  0.4358787022543492
  0.9552600034693267  0.0005556531758805  0.3361017671343263
  0.4552600034693269 -0.0005556531758804  0.3361017671343263
  0.5243146248465128  0.9014235458079146  0.4358787022543492
  0.5756415487885567  0.3803868618935159  0.4290818486882509
  0.4561256778272639  0.4998187369510037  0.3321843101449850
  0.9561256778272638  0.5001812630489965  0.3321843101449850
  0.0756415487885564  0.6196131381064836  0.4290818486882509
  0.0283399783580127  0.1079787037962008  0.5617317004023213
  0.3901270191419850  0.1079787037962008  0.4899075671976801
  0.8901270191419847  0.8920212962037987  0.4899075671976801
  0.5283399783580131  0.8920212962037987  0.5617317004023213
  0.5555045483160997  0.3766482652963489  0.5562456835727760
  0.8629624491839051  0.3766482652963489  0.4953935839272177
  0.3629624491839051  0.6233517347036514  0.4953935839272177
  0.0555045483160992  0.6233517347036512  0.5562456835727759
 -0.5367930059693222  0.0005556531758805  0.7155375004656760
  0.3941523725534829  0.0985764541920855  0.6157605653456532
  0.8941523725534830  0.9014235458079146  0.6157605653456532
 -0.0367930059693219 -0.0005556531758804  0.7155375004656760
 -0.0376586803272660  0.4998187369510037  0.7194549573550083
  0.8428254487114412  0.3803868618935159  0.6225574188117433
  0.3428254487114414  0.6196131381064834  0.6225574188117433
 -0.5376586803272659  0.5001812630489965  0.7194549573550083
 
  0.00000000E+00  0.00000000E+00  0.00000000E+00
  0.00000000E+00  0.00000000E+00  0.00000000E+00
  0.00000000E+00  0.00000000E+00  0.00000000E+00
  0.00000000E+00  0.00000000E+00  0.00000000E+00
  0.00000000E+00  0.00000000E+00  0.00000000E+00
  0.00000000E+00  0.00000000E+00  0.00000000E+00
  0.00000000E+00  0.00000000E+00  0.00000000E+00
  0.00000000E+00  0.00000000E+00  0.00000000E+00
  0.00000000E+00  0.00000000E+00  0.00000000E+00
  0.00000000E+00  0.00000000E+00  0.00000000E+00
  0.00000000E+00  0.00000000E+00  0.00000000E+00
  0.00000000E+00  0.00000000E+00  0.00000000E+00
  0.00000000E+00  0.00000000E+00  0.00000000E+00
  0.00000000E+00  0.00000000E+00  0.00000000E+00
  0.00000000E+00  0.00000000E+00  0.00000000E+00
  0.00000000E+00  0.00000000E+00  0.00000000E+00
  0.00000000E+00  0.00000000E+00  0.00000000E+00
  0.00000000E+00  0.00000000E+00  0.00000000E+00
  0.00000000E+00  0.00000000E+00  0.00000000E+00
  0.00000000E+00  0.00000000E+00  0.00000000E+00
  0.00000000E+00  0.00000000E+00  0.00000000E+00
  0.00000000E+00  0.00000000E+00  0.00000000E+00
  0.00000000E+00  0.00000000E+00  0.00000000E+00
  0.00000000E+00  0.00000000E+00  0.00000000E+00
  0.00000000E+00  0.00000000E+00  0.00000000E+00
  0.00000000E+00  0.00000000E+00  0.00000000E+00
  0.00000000E+00  0.00000000E+00  0.00000000E+00
  0.00000000E+00  0.00000000E+00  0.00000000E+00
  0.00000000E+00  0.00000000E+00  0.00000000E+00
  0.00000000E+00  0.00000000E+00  0.00000000E+00
  0.00000000E+00  0.00000000E+00  0.00000000E+00
  0.00000000E+00  0.00000000E+00  0.00000000E+00
  0.00000000E+00  0.00000000E+00  0.00000000E+00
  0.00000000E+00  0.00000000E+00  0.00000000E+00
  0.00000000E+00  0.00000000E+00  0.00000000E+00
  0.00000000E+00  0.00000000E+00  0.00000000E+00
  0.00000000E+00  0.00000000E+00  0.00000000E+00
  0.00000000E+00  0.00000000E+00  0.00000000E+00
