Generated by VASPKIT code
 1.000000
    9.8531629947999999    0.0000000000000000    0.0000000000000000
    0.0000000000000000   11.4365032600000003    0.0000000000000000
    0.0000000000000000    0.0000000000000000   37.3369731617000014
   Zn   W    O 
    24    32   128
Direct
    0.3589617574500572    0.3356606951749720    0.3869436057886155    Zn001
    0.3589617574500572    0.8356606951749720    0.3869436057886155    Zn002
    0.8589617574500572    0.3356606951749720    0.3869436057886155    Zn003
    0.8589617574500572    0.8356606951749720    0.3869436057886155    Zn004
    0.1089617574500570    0.1643393048250281    0.3869436057886155    Zn005
    0.1089617574500570    0.6643393048250281    0.3869436057886155    Zn006
    0.6089617574500570    0.1643393048250281    0.3869436057886155    Zn007
    0.6089617574500570    0.6643393048250281    0.3869436057886155    Zn008
    0.3551117366000014    0.3377944553883256    0.5130506205000032    Zn009
    0.3551117366000014    0.8377944553883256    0.5130506205000032    Zn010
    0.8551117366000014    0.3377944553883256    0.5130506205000032    Zn011
    0.8551117366000014    0.8377944553883256    0.5130506205000032    Zn012
    0.1051117366000014    0.1622055446116742    0.5130506205000032    Zn013
    0.1051117366000014    0.6622055446116742    0.5130506205000032    Zn014
    0.6051117366000014    0.1622055446116742    0.5130506205000032    Zn015
    0.6051117366000014    0.6622055446116742    0.5130506205000032    Zn016
    0.3512617157499420    0.3356606951749720    0.6391576352113910    Zn017
    0.3512617157499420    0.8356606951749720    0.6391576352113910    Zn018
    0.8512617157499420    0.3356606951749720    0.6391576352113910    Zn019
    0.8512617157499420    0.8356606951749720    0.6391576352113910    Zn020
    0.1012617157499422    0.1643393048250281    0.6391576352113910    Zn021
    0.1012617157499422    0.6643393048250281    0.6391576352113910    Zn022
    0.6012617157499422    0.1643393048250281    0.6391576352113910    Zn023
    0.6012617157499422    0.6643393048250281    0.6391576352113910    Zn024
    0.3611241769230266    0.0961581896521111    0.3231181694062006     W001
    0.3611241769230266    0.5961581896521111    0.3231181694062006     W002
    0.8611241769230266    0.0961581896521111    0.3231181694062006     W003
    0.8611241769230266    0.5961581896521111    0.3231181694062006     W004
    0.1111241769230265    0.4038418103478888    0.3231181694062006     W005
    0.1111241769230265    0.9038418103478888    0.3231181694062006     W006
    0.6111241769230265    0.4038418103478888    0.3231181694062006     W007
    0.6111241769230265    0.9038418103478888    0.3231181694062006     W008
    0.3573757041367307    0.0897539749132048    0.4504801745214639     W009
    0.3573757041367307    0.5897539749132048    0.4504801745214639     W010
    0.8573757041367307    0.0897539749132048    0.4504801745214639     W011
    0.8573757041367307    0.5897539749132048    0.4504801745214639     W012
    0.1073757041367307    0.4102460250867949    0.4504801745214639     W013
    0.1073757041367307    0.9102460250867949    0.4504801745214639     W014
    0.6073757041367307    0.4102460250867949    0.4504801745214639     W015
    0.6073757041367307    0.9102460250867949    0.4504801745214639     W016
    0.3528477690132712    0.0897539749132048    0.5756210664785422     W017
    0.3528477690132712    0.5897539749132048    0.5756210664785422     W018
    0.8528477690132712    0.0897539749132048    0.5756210664785422     W019
    0.8528477690132712    0.5897539749132048    0.5756210664785422     W020
    0.1028477690132712    0.4102460250867949    0.5756210664785422     W021
    0.1028477690132712    0.9102460250867949    0.5756210664785422     W022
    0.6028477690132712    0.4102460250867949    0.5756210664785422     W023
    0.6028477690132712    0.9102460250867949    0.5756210664785422     W024
    0.3490992962769727    0.0961581896521111    0.7029830715938051     W025
    0.3490992962769727    0.5961581896521111    0.7029830715938051     W026
    0.8490992962769727    0.0961581896521111    0.7029830715938051     W027
    0.8490992962769727    0.5961581896521111    0.7029830715938051     W028
    0.0990992962769728    0.4038418103478888    0.7029830715938051     W029
    0.0990992962769728    0.9038418103478888    0.7029830715938051     W030
    0.5990992962769728    0.4038418103478888    0.7029830715938051     W031
    0.5990992962769728    0.9038418103478888    0.7029830715938051     W032
    0.0200917986444562    0.0447929425050492    0.3006157806933543     O001
    0.0200917986444562    0.5447929425050492    0.3006157806933543     O002
    0.5200917986444562    0.0447929425050492    0.3006157806933543     O003
    0.5200917986444562    0.5447929425050492    0.3006157806933543     O004
    0.2036358831015921    0.0585991683716741    0.3528794663638196     O005
    0.2036358831015921    0.5585991683716742    0.3528794663638196     O006
    0.7036358831015921    0.0585991683716741    0.3528794663638196     O007
    0.7036358831015921    0.5585991683716742    0.3528794663638196     O008
    0.4536358831015921    0.4414008316283259    0.3528794663638196     O009
    0.4536358831015921    0.9414008316283259    0.3528794663638196     O010
    0.9536358831015921    0.4414008316283259    0.3528794663638196     O011
    0.9536358831015921    0.9414008316283259    0.3528794663638196     O012
    0.2700917986444562    0.4552070574949508    0.3006157806933543     O013
    0.2700917986444562    0.9552070574949508    0.3006157806933543     O014
    0.7700917986444562    0.4552070574949508    0.3006157806933543     O015
    0.7700917986444562    0.9552070574949508    0.3006157806933543     O016
    0.2991122225618346    0.1973703659743977    0.2927234607007982     O017
    0.2991122225618346    0.6973703659743977    0.2927234607007982     O018
    0.7991122225618346    0.1973703659743977    0.2927234607007982     O019
    0.7991122225618346    0.6973703659743977    0.2927234607007982     O020
    0.4364055493099566    0.1882375943121017    0.3590228258213167     O021
    0.4364055493099566    0.6882375943121017    0.3590228258213167     O022
    0.9364055493099566    0.1882375943121017    0.3590228258213167     O023
    0.9364055493099566    0.6882375943121017    0.3590228258213167     O024
    0.1864055493099566    0.3117624056878981    0.3590228258213167     O025
    0.1864055493099566    0.8117624056878981    0.3590228258213167     O026
    0.6864055493099566    0.3117624056878981    0.3590228258213167     O027
    0.6864055493099566    0.8117624056878981    0.3590228258213167     O028
    0.0491122225618346    0.3026296340256021    0.2927234607007982     O029
    0.0491122225618346    0.8026296340256021    0.2927234607007982     O030
    0.5491122225618346    0.3026296340256021    0.2927234607007982     O031
    0.5491122225618346    0.8026296340256021    0.2927234607007982     O032
    0.0169762860243953    0.0538650030545975    0.4235594081217928     O033
    0.0169762860243953    0.5538650030545975    0.4235594081217928     O034
    0.5169762860243953    0.0538650030545975    0.4235594081217928     O035
    0.5169762860243953    0.5538650030545975    0.4235594081217928     O036
    0.1981363672583867    0.0525703560629111    0.4778463701233608     O037
    0.1981363672583867    0.5525703560629112    0.4778463701233608     O038
    0.6981363672583867    0.0525703560629111    0.4778463701233608     O039
    0.6981363672583867    0.5525703560629112    0.4778463701233608     O040
    0.4481363672583866    0.4474296439370889    0.4778463701233608     O041
    0.4481363672583866    0.9474296439370889    0.4778463701233608     O042
    0.9481363672583866    0.4474296439370889    0.4778463701233608     O043
    0.9481363672583866    0.9474296439370889    0.4778463701233608     O044
    0.2669762860243955    0.4461349969454023    0.4235594081217928     O045
    0.2669762860243955    0.9461349969454023    0.4235594081217928     O046
    0.7669762860243955    0.4461349969454023    0.4235594081217928     O047
    0.7669762860243955    0.9461349969454023    0.4235594081217928     O048
    0.2794482193580261    0.1877446518884018    0.4186016813045781     O049
    0.2794482193580261    0.6877446518884018    0.4186016813045781     O050
    0.7794482193580261    0.1877446518884018    0.4186016813045781     O051
    0.7794482193580261    0.6877446518884018    0.4186016813045781     O052
    0.4317122678659353    0.1882839433526259    0.4828322129312685     O053
    0.4317122678659353    0.6882839433526259    0.4828322129312685     O054
    0.9317122678659353    0.1882839433526259    0.4828322129312685     O055
    0.9317122678659353    0.6882839433526259    0.4828322129312685     O056
    0.1817122678659355    0.3117160566473740    0.4828322129312685     O057
    0.1817122678659355    0.8117160566473740    0.4828322129312685     O058
    0.6817122678659355    0.3117160566473740    0.4828322129312685     O059
    0.6817122678659355    0.8117160566473740    0.4828322129312685     O060
    0.0294482193580260    0.3122553481115981    0.4186016813045781     O061
    0.0294482193580260    0.8122553481115981    0.4186016813045781     O062
    0.5294482193580259    0.3122553481115981    0.4186016813045781     O063
    0.5294482193580259    0.8122553481115981    0.4186016813045781     O064
    0.0120871059416127    0.0525703560629111    0.5482548708766383     O065
    0.0120871059416127    0.5525703560629112    0.5482548708766383     O066
    0.5120871059416128    0.0525703560629111    0.5482548708766383     O067
    0.5120871059416128    0.5525703560629112    0.5482548708766383     O068
    0.1932471871756039    0.0538650030545975    0.6025418328782060     O069
    0.1932471871756039    0.5538650030545975    0.6025418328782060     O070
    0.6932471871756039    0.0538650030545975    0.6025418328782060     O071
    0.6932471871756039    0.5538650030545975    0.6025418328782060     O072
    0.4432471871756037    0.4461349969454023    0.6025418328782060     O073
    0.4432471871756037    0.9461349969454023    0.6025418328782060     O074
    0.9432471871756037    0.4461349969454023    0.6025418328782060     O075
    0.9432471871756037    0.9461349969454023    0.6025418328782060     O076
    0.2620871059416162    0.4474296439370889    0.5482548708766383     O077
    0.2620871059416162    0.9474296439370889    0.5482548708766383     O078
    0.7620871059416162    0.4474296439370889    0.5482548708766383     O079
    0.7620871059416162    0.9474296439370889    0.5482548708766383     O080
    0.2785112052840666    0.1882839433526259    0.5432690281687252     O081
    0.2785112052840666    0.6882839433526259    0.5432690281687252     O082
    0.7785112052840666    0.1882839433526259    0.5432690281687252     O083
    0.7785112052840666    0.6882839433526259    0.5432690281687252     O084
    0.4307752538419731    0.1877446518884018    0.6074995597954159     O085
    0.4307752538419731    0.6877446518884018    0.6074995597954159     O086
    0.9307752538419731    0.1877446518884018    0.6074995597954159     O087
    0.9307752538419731    0.6877446518884018    0.6074995597954159     O088
    0.1807752538419733    0.3122553481115981    0.6074995597954159     O089
    0.1807752538419733    0.8122553481115981    0.6074995597954159     O090
    0.6807752538419733    0.3122553481115981    0.6074995597954159     O091
    0.6807752538419733    0.8122553481115981    0.6074995597954159     O092
    0.0285112052840665    0.3117160566473740    0.5432690281687252     O093
    0.0285112052840665    0.8117160566473740    0.5432690281687252     O094
    0.5285112052840665    0.3117160566473740    0.5432690281687252     O095
    0.5285112052840665    0.8117160566473740    0.5432690281687252     O096
    0.0065875900484097    0.0585991683716741    0.6732217746361798     O097
    0.0065875900484097    0.5585991683716742    0.6732217746361798     O098
    0.5065875900484098    0.0585991683716741    0.6732217746361798     O099
    0.5065875900484098    0.5585991683716742    0.6732217746361798     O100
    0.1901316745555430    0.0447929425050492    0.7254854603066453     O101
    0.1901316745555430    0.5447929425050492    0.7254854603066453     O102
    0.6901316745555430    0.0447929425050492    0.7254854603066453     O103
    0.6901316745555430    0.5447929425050492    0.7254854603066453     O104
    0.4401316745555430    0.4552070574949508    0.7254854603066453     O105
    0.4401316745555430    0.9552070574949508    0.7254854603066453     O106
    0.9401316745555430    0.4552070574949508    0.7254854603066453     O107
    0.9401316745555430    0.9552070574949508    0.7254854603066453     O108
    0.2565875900484098    0.4414008316283259    0.6732217746361798     O109
    0.2565875900484098    0.9414008316283259    0.6732217746361798     O110
    0.7565875900484098    0.4414008316283259    0.6732217746361798     O111
    0.7565875900484098    0.9414008316283259    0.6732217746361798     O112
    0.2738179238400418    0.1882375943121017    0.6670784152786776     O113
    0.2738179238400418    0.6882375943121017    0.6670784152786776     O114
    0.7738179238400418    0.1882375943121017    0.6670784152786776     O115
    0.7738179238400418    0.6882375943121017    0.6670784152786776     O116
    0.4111112506381647    0.1973703659743977    0.7333777803991957     O117
    0.4111112506381647    0.6973703659743977    0.7333777803991957     O118
    0.9111112506381647    0.1973703659743977    0.7333777803991957     O119
    0.9111112506381647    0.6973703659743977    0.7333777803991957     O120
    0.1611112506381648    0.3026296340256021    0.7333777803991957     O121
    0.1611112506381648    0.8026296340256021    0.7333777803991957     O122
    0.6611112506381648    0.3026296340256021    0.7333777803991957     O123
    0.6611112506381648    0.8026296340256021    0.7333777803991957     O124
    0.0238179238400418    0.3117624056878981    0.6670784152786776     O125
    0.0238179238400418    0.8117624056878981    0.6670784152786776     O126
    0.5238179238400418    0.3117624056878981    0.6670784152786776     O127
    0.5238179238400418    0.8117624056878981    0.6670784152786776     O128
