Generated by VASPKIT code
 1.000000
    9.8531629947999999    0.0000000000000000    0.0000000000000000
    0.0000000000000000   11.4365032600000003    0.0000000000000000
    0.0000000000000000    0.0000000000000000   37.3369731617000014
   Zn   W    O 
    32    24    96
Direct
    0.3565241982154039    0.3166857903566312    0.2646413488521261    Zn001
    0.3565241982154039    0.8166857903566312    0.2646413488521261    Zn002
    0.8565241982154039    0.3166857903566312    0.2646413488521261    Zn003
    0.8565241982154039    0.8166857903566312    0.2646413488521261    Zn004
    0.1065241982154038    0.1833142096433684    0.2646413488521261    Zn005
    0.1065241982154038    0.6833142096433684    0.2646413488521261    Zn006
    0.6065241982154038    0.1833142096433684    0.2646413488521261    Zn007
    0.6065241982154038    0.6833142096433684    0.2646413488521261    Zn008
    0.3605167464141614    0.3374066030449658    0.3879777977077078    Zn009
    0.3605167464141614    0.8374066030449658    0.3879777977077078    Zn010
    0.8605167464141614    0.3374066030449658    0.3879777977077078    Zn011
    0.8605167464141614    0.8374066030449658    0.3879777977077078    Zn012
    0.1105167464141613    0.1625933969550342    0.3879777977077078    Zn013
    0.1105167464141613    0.6625933969550342    0.3879777977077078    Zn014
    0.6105167464141613    0.1625933969550342    0.3879777977077078    Zn015
    0.6105167464141613    0.6625933969550342    0.3879777977077078    Zn016
    0.3545523167358391    0.3374066030449658    0.5131234432922988    Zn017
    0.3545523167358391    0.8374066030449658    0.5131234432922988    Zn018
    0.8545523167358391    0.3374066030449658    0.5131234432922988    Zn019
    0.8545523167358391    0.8374066030449658    0.5131234432922988    Zn020
    0.1045523167358392    0.1625933969550342    0.5131234432922988    Zn021
    0.1045523167358392    0.6625933969550342    0.5131234432922988    Zn022
    0.6045523167358392    0.1625933969550342    0.5131234432922988    Zn023
    0.6045523167358392    0.6625933969550342    0.5131234432922988    Zn024
    0.3585448648845957    0.3166857903566312    0.6364598921478806    Zn025
    0.3585448648845957    0.8166857903566312    0.6364598921478806    Zn026
    0.8585448648845957    0.3166857903566312    0.6364598921478806    Zn027
    0.8585448648845957    0.8166857903566312    0.6364598921478806    Zn028
    0.1085448648845958    0.1833142096433684    0.6364598921478806    Zn029
    0.1085448648845958    0.6833142096433684    0.6364598921478806    Zn030
    0.6085448648845958    0.1833142096433684    0.6364598921478806    Zn031
    0.6085448648845958    0.6833142096433684    0.6364598921478806    Zn032
    0.3672561827724994    0.0861318377200841    0.3259123833667557     W001
    0.3672561827724994    0.5861318377200841    0.3259123833667557     W002
    0.8672561827724994    0.0861318377200841    0.3259123833667557     W003
    0.8672561827724994    0.5861318377200841    0.3259123833667557     W004
    0.1172561827724993    0.4138681622799157    0.3259123833667557     W005
    0.1172561827724993    0.9138681622799157    0.3259123833667557     W006
    0.6172561827724993    0.4138681622799157    0.3259123833667557     W007
    0.6172561827724993    0.9138681622799157    0.3259123833667557     W008
    0.3575345315500016    0.0897969738977796    0.4505506205000032     W009
    0.3575345315500016    0.5897969738977796    0.4505506205000032     W010
    0.8575345315500016    0.0897969738977796    0.4505506205000032     W011
    0.8575345315500016    0.5897969738977796    0.4505506205000032     W012
    0.1075345315500016    0.4102030261022205    0.4505506205000032     W013
    0.1075345315500016    0.9102030261022205    0.4505506205000032     W014
    0.6075345315500016    0.4102030261022205    0.4505506205000032     W015
    0.6075345315500016    0.9102030261022205    0.4505506205000032     W016
    0.3478128803275002    0.0861318377200841    0.5751888576332506     W017
    0.3478128803275002    0.5861318377200841    0.5751888576332506     W018
    0.8478128803275002    0.0861318377200841    0.5751888576332506     W019
    0.8478128803275002    0.5861318377200841    0.5751888576332506     W020
    0.0978128803275004    0.4138681622799157    0.5751888576332506     W021
    0.0978128803275004    0.9138681622799157    0.5751888576332506     W022
    0.5978128803275004    0.4138681622799157    0.5751888576332506     W023
    0.5978128803275004    0.9138681622799157    0.5751888576332506     W024
    0.0214026638406833    0.0562931461877956    0.2968722436554425     O001
    0.0214026638406833    0.5562931461877956    0.2968722436554425     O002
    0.5214026638406832    0.0562931461877956    0.2968722436554425     O003
    0.5214026638406832    0.5562931461877956    0.2968722436554425     O004
    0.2021158420673085    0.0518847619161517    0.3529472302004416     O005
    0.2021158420673085    0.5518847619161518    0.3529472302004416     O006
    0.7021158420673085    0.0518847619161517    0.3529472302004416     O007
    0.7021158420673085    0.5518847619161518    0.3529472302004416     O008
    0.4521158420673086    0.4481152380838482    0.3529472302004416     O009
    0.4521158420673086    0.9481152380838482    0.3529472302004416     O010
    0.9521158420673086    0.4481152380838482    0.3529472302004416     O011
    0.9521158420673086    0.9481152380838482    0.3529472302004416     O012
    0.2714026638406830    0.4437068538122045    0.2968722436554425     O013
    0.2714026638406830    0.9437068538122045    0.2968722436554425     O014
    0.7714026638406830    0.4437068538122045    0.2968722436554425     O015
    0.7714026638406830    0.9437068538122045    0.2968722436554425     O016
    0.2808706802371839    0.1815546953519800    0.2942269882456028     O017
    0.2808706802371839    0.6815546953519800    0.2942269882456028     O018
    0.7808706802371839    0.1815546953519800    0.2942269882456028     O019
    0.7808706802371839    0.6815546953519800    0.2942269882456028     O020
    0.4378581184611468    0.1885993332619852    0.3574695171770764     O021
    0.4378581184611468    0.6885993332619852    0.3574695171770764     O022
    0.9378581184611468    0.1885993332619852    0.3574695171770764     O023
    0.9378581184611468    0.6885993332619852    0.3574695171770764     O024
    0.1878581184611468    0.3114006667380149    0.3574695171770764     O025
    0.1878581184611468    0.8114006667380149    0.3574695171770764     O026
    0.6878581184611468    0.3114006667380149    0.3574695171770764     O027
    0.6878581184611468    0.8114006667380149    0.3574695171770764     O028
    0.0308706802371840    0.3184453046480200    0.2942269882456028     O029
    0.0308706802371840    0.8184453046480200    0.2942269882456028     O030
    0.5308706802371840    0.3184453046480200    0.2942269882456028     O031
    0.5308706802371840    0.8184453046480200    0.2942269882456028     O032
    0.0169178532480754    0.0530756734262462    0.4233952293453986     O033
    0.0169178532480754    0.5530756734262461    0.4233952293453986     O034
    0.5169178532480754    0.0530756734262462    0.4233952293453986     O035
    0.5169178532480754    0.5530756734262461    0.4233952293453986     O036
    0.1981512099019251    0.0530756734262462    0.4777060116546006     O037
    0.1981512099019251    0.5530756734262461    0.4777060116546006     O038
    0.6981512099019251    0.0530756734262462    0.4777060116546006     O039
    0.6981512099019251    0.5530756734262461    0.4777060116546006     O040
    0.4481512099019251    0.4469243265737538    0.4777060116546006     O041
    0.4481512099019251    0.9469243265737538    0.4777060116546006     O042
    0.9481512099019251    0.4469243265737538    0.4777060116546006     O043
    0.9481512099019251    0.9469243265737538    0.4777060116546006     O044
    0.2669178532480754    0.4469243265737538    0.4233952293453986     O045
    0.2669178532480754    0.9469243265737538    0.4233952293453986     O046
    0.7669178532480754    0.4469243265737538    0.4233952293453986     O047
    0.7669178532480754    0.9469243265737538    0.4233952293453986     O048
    0.2830365480637954    0.1882305114441942    0.4182346564132646     O049
    0.2830365480637954    0.6882305114441942    0.4182346564132646     O050
    0.7830365480637954    0.1882305114441942    0.4182346564132646     O051
    0.7830365480637954    0.6882305114441942    0.4182346564132646     O052
    0.4320325150362042    0.1882305114441942    0.4828665846867293     O053
    0.4320325150362042    0.6882305114441942    0.4828665846867293     O054
    0.9320325150362042    0.1882305114441942    0.4828665846867293     O055
    0.9320325150362042    0.6882305114441942    0.4828665846867293     O056
    0.1820325150362045    0.3117694885558058    0.4828665846867293     O057
    0.1820325150362045    0.8117694885558058    0.4828665846867293     O058
    0.6820325150362045    0.3117694885558058    0.4828665846867293     O059
    0.6820325150362045    0.8117694885558058    0.4828665846867293     O060
    0.0330365480637951    0.3117694885558058    0.4182346564132646     O061
    0.0330365480637951    0.8117694885558058    0.4182346564132646     O062
    0.5330365480637951    0.3117694885558058    0.4182346564132646     O063
    0.5330365480637951    0.8117694885558058    0.4182346564132646     O064
    0.0129532210326911    0.0518847619161517    0.5481540107995576     O065
    0.0129532210326911    0.5518847619161518    0.5481540107995576     O066
    0.5129532210326910    0.0518847619161517    0.5481540107995576     O067
    0.5129532210326910    0.5518847619161518    0.5481540107995576     O068
    0.1936663993093172    0.0562931461877956    0.6042289973445566     O069
    0.1936663993093172    0.5562931461877956    0.6042289973445566     O070
    0.6936663993093172    0.0562931461877956    0.6042289973445566     O071
    0.6936663993093172    0.5562931461877956    0.6042289973445566     O072
    0.4436663993093175    0.4437068538122045    0.6042289973445566     O073
    0.4436663993093175    0.9437068538122045    0.6042289973445566     O074
    0.9436663993093175    0.4437068538122045    0.6042289973445566     O075
    0.9436663993093175    0.9437068538122045    0.6042289973445566     O076
    0.2629532210326946    0.4481152380838482    0.5481540107995576     O077
    0.2629532210326946    0.9481152380838482    0.5481540107995576     O078
    0.7629532210326946    0.4481152380838482    0.5481540107995576     O079
    0.7629532210326946    0.9481152380838482    0.5481540107995576     O080
    0.2772109446388529    0.1885993332619852    0.5436317239229174     O081
    0.2772109446388529    0.6885993332619852    0.5436317239229174     O082
    0.7772109446388529    0.1885993332619852    0.5436317239229174     O083
    0.7772109446388529    0.6885993332619852    0.5436317239229174     O084
    0.4341983829128166    0.1815546953519800    0.6068742528543910     O085
    0.4341983829128166    0.6815546953519800    0.6068742528543910     O086
    0.9341983829128166    0.1815546953519800    0.6068742528543910     O087
    0.9341983829128166    0.6815546953519800    0.6068742528543910     O088
    0.1841983829128165    0.3184453046480200    0.6068742528543910     O089
    0.1841983829128165    0.8184453046480200    0.6068742528543910     O090
    0.6841983829128165    0.3184453046480200    0.6068742528543910     O091
    0.6841983829128165    0.8184453046480200    0.6068742528543910     O092
    0.0272109446388529    0.3114006667380149    0.5436317239229174     O093
    0.0272109446388529    0.8114006667380149    0.5436317239229174     O094
    0.5272109446388529    0.3114006667380149    0.5436317239229174     O095
    0.5272109446388529    0.8114006667380149    0.5436317239229174     O096
