# Compound: Zn10W10O40. Old comment: O40
   1.00000000000000     
     4.6673658500000004    0.0000000000000000    0.0000000000000000
    -0.0503960100000000    7.5476530920000000    0.0000000000000000
     0.0000000000000000    0.0000000000000000   37.3228053220000007
   Zn   W    O 
    10    10    40
Direct
  0.4959964946887641  0.0000134969331167  0.2988698942367667
  0.4924740383833714  0.6523402515994454  0.2764440931489394
  0.4837553886559546  0.4131032448578315  0.4083755936320033
  0.4807128321517659  0.9882769457748081  0.3945864952028787
  0.4714945494526524  0.8370364392181973  0.5069049769842598
  0.4665289611473448  0.4230855376818048  0.4930950230157395
  0.4573106783482367  0.2718450311251883  0.6054135047971213
  0.4542681219440426  0.8470187321421656  0.5916244063679964
  0.4455494722166257  0.6077817253005571  0.7235559068510605
  0.4420270159112338  0.2601084800668874  0.7011301057632336
  0.9378573691694320  0.2712790088935489  0.2577839303597533
  0.0017203405501381  0.3015330774030621  0.3443057759188045
  0.9914350511344987  0.7145426582822232  0.3553646172371596
  0.9789909753947778  0.7053264440665444  0.4424861906100986
  0.9706430539479916  0.1257874548346487  0.4569349252235904
  0.9673804566520057  0.1343345221653556  0.5430650747764091
  0.9590325351052177  0.5547955329334529  0.5575138093899016
  0.9465884594654985  0.5455793187177740  0.6446353827628400
  0.9363031700498590  0.9585888995969351  0.6556942240811953
  0.0001661414305655 -0.0111570318935452  0.7422160696402471
  0.1871534313561839  0.5264686899310461  0.3314237065819706
  0.7229250968002030  0.4602898500102039  0.2700270958274744
  0.7081195655213454  0.0854896039888053  0.2540993734107155
  0.1801969273143116  0.2338900175218698  0.2982865861761908
  0.1301002061530656  0.3039181676316375  0.2189858067444786
  0.7454290104548014  0.7720432739084520  0.3219208734237535
  0.7240466873532866  0.1390585000528397  0.3360456292306973
  0.2531749776322364  0.8329901580647414  0.2782266879361359
  0.1970481221250582  0.9487065224319813  0.4341060622962588
  0.7704174259984303  0.7951630192368608  0.3959627173540312
  0.7614129486388949  0.4635825453830345  0.3671933252663668
  0.2012644643095687  0.6139393901841711  0.4043064280390767
  0.2499807211213653  0.8902635996498082  0.3550606875461282
  0.7242199135852513  0.1722501384263580  0.4203284485517186
  0.7195201469957724  0.5282470232626908  0.4477497658990686
  0.2425692813908524  0.2291940313437375  0.3781868938592933
  0.1819401072103177  0.3751353101315950  0.5332316820515841
  0.7514074887153570  0.2183717979135201  0.4955558143735125
  0.7560834033896798  0.8849866668684033  0.4667683179484159
  0.1866160218846396  0.0417501790864842  0.5044441856264872
  0.2331379506307235  0.3017417499045465  0.4526353739637217
  0.7076187706726033  0.6014601695517333  0.5219615496671768
  0.7048855599692734  0.9583802269954486  0.5473646260362778
  0.2304047399273944  0.6586618074482710  0.4780384503328228
  0.1766105619611023  0.7965394316169703  0.6328066747336328
  0.7367590461904262  0.6461825868158261  0.5956935719609237
  0.7409753884749390  0.3114154545680228  0.5658939377037416
  0.1676060846015663  0.4649589577631361  0.6040372826459687
  0.2185033635042229  0.7318749536373117  0.5522502341009314
  0.6954542292091451  0.0309279456562597  0.6218131061407064
  0.6880427894786313  0.3698583772501933  0.6449393124538725
  0.2138035970147463  0.0878718385736391  0.5796715514482818
  0.2299039449786565  0.1746323730111921  0.7459006265892847
  0.7578265832856858  0.0262319594781274  0.7017134138238086
  0.7508700792438135  0.7336532870689511  0.6685762934180293
  0.2150984137997940  0.7998321269898006  0.7299729041725258
  0.2139768232467104  0.1210634768471559  0.6639543707693019
  0.6848485329677606  0.4271318189352633  0.7217733120638629
  0.8079233044469313  0.9562038092683576  0.7810141932555217
  0.1925945000451936  0.4880787030915510  0.6780791265762469
 
  0.00000000E+00  0.00000000E+00  0.00000000E+00
  0.00000000E+00  0.00000000E+00  0.00000000E+00
  0.00000000E+00  0.00000000E+00  0.00000000E+00
  0.00000000E+00  0.00000000E+00  0.00000000E+00
  0.00000000E+00  0.00000000E+00  0.00000000E+00
  0.00000000E+00  0.00000000E+00  0.00000000E+00
  0.00000000E+00  0.00000000E+00  0.00000000E+00
  0.00000000E+00  0.00000000E+00  0.00000000E+00
  0.00000000E+00  0.00000000E+00  0.00000000E+00
  0.00000000E+00  0.00000000E+00  0.00000000E+00
  0.00000000E+00  0.00000000E+00  0.00000000E+00
  0.00000000E+00  0.00000000E+00  0.00000000E+00
  0.00000000E+00  0.00000000E+00  0.00000000E+00
  0.00000000E+00  0.00000000E+00  0.00000000E+00
  0.00000000E+00  0.00000000E+00  0.00000000E+00
  0.00000000E+00  0.00000000E+00  0.00000000E+00
  0.00000000E+00  0.00000000E+00  0.00000000E+00
  0.00000000E+00  0.00000000E+00  0.00000000E+00
  0.00000000E+00  0.00000000E+00  0.00000000E+00
  0.00000000E+00  0.00000000E+00  0.00000000E+00
  0.00000000E+00  0.00000000E+00  0.00000000E+00
  0.00000000E+00  0.00000000E+00  0.00000000E+00
  0.00000000E+00  0.00000000E+00  0.00000000E+00
  0.00000000E+00  0.00000000E+00  0.00000000E+00
  0.00000000E+00  0.00000000E+00  0.00000000E+00
  0.00000000E+00  0.00000000E+00  0.00000000E+00
  0.00000000E+00  0.00000000E+00  0.00000000E+00
  0.00000000E+00  0.00000000E+00  0.00000000E+00
  0.00000000E+00  0.00000000E+00  0.00000000E+00
  0.00000000E+00  0.00000000E+00  0.00000000E+00
  0.00000000E+00  0.00000000E+00  0.00000000E+00
  0.00000000E+00  0.00000000E+00  0.00000000E+00
  0.00000000E+00  0.00000000E+00  0.00000000E+00
  0.00000000E+00  0.00000000E+00  0.00000000E+00
  0.00000000E+00  0.00000000E+00  0.00000000E+00
  0.00000000E+00  0.00000000E+00  0.00000000E+00
  0.00000000E+00  0.00000000E+00  0.00000000E+00
  0.00000000E+00  0.00000000E+00  0.00000000E+00
  0.00000000E+00  0.00000000E+00  0.00000000E+00
  0.00000000E+00  0.00000000E+00  0.00000000E+00
  0.00000000E+00  0.00000000E+00  0.00000000E+00
  0.00000000E+00  0.00000000E+00  0.00000000E+00
  0.00000000E+00  0.00000000E+00  0.00000000E+00
  0.00000000E+00  0.00000000E+00  0.00000000E+00
  0.00000000E+00  0.00000000E+00  0.00000000E+00
  0.00000000E+00  0.00000000E+00  0.00000000E+00
  0.00000000E+00  0.00000000E+00  0.00000000E+00
  0.00000000E+00  0.00000000E+00  0.00000000E+00
  0.00000000E+00  0.00000000E+00  0.00000000E+00
  0.00000000E+00  0.00000000E+00  0.00000000E+00
  0.00000000E+00  0.00000000E+00  0.00000000E+00
  0.00000000E+00  0.00000000E+00  0.00000000E+00
  0.00000000E+00  0.00000000E+00  0.00000000E+00
  0.00000000E+00  0.00000000E+00  0.00000000E+00
  0.00000000E+00  0.00000000E+00  0.00000000E+00
  0.00000000E+00  0.00000000E+00  0.00000000E+00
  0.00000000E+00  0.00000000E+00  0.00000000E+00
  0.00000000E+00  0.00000000E+00  0.00000000E+00
  0.00000000E+00  0.00000000E+00  0.00000000E+00
  0.00000000E+00  0.00000000E+00  0.00000000E+00
