# Compound: Zn10W8O36. Old comment: O36W
   1.00000000000000     
     4.6673658500000004    0.0000000000000000    0.0000000000000000
    -0.0503960100000000    7.5476530920000000    0.0000000000000000
     0.0000000000000000    0.0000000000000000   37.3228053220000007
   Zn   W    O 
    10     8    36
Direct
  0.4501398338399827  0.8580578871073322  0.2758944110417161
  0.4968684753990124  0.4786098606529028  0.2611341359306513
  0.4750649409316383  0.3040040833233507  0.3707347731304533
  0.4737530626849862  0.9024601123042300  0.3574491142937954
  0.4709036883605589  0.7390960388479952  0.4738010939716936
  0.4713902376394389  0.3226489663520062  0.4572951094283091
  0.4685408633150115  0.1592848928957659  0.5736470891062069
  0.4672289850683595  0.7577409218766440  0.5603614302695429
  0.4454254506009854  0.5831351444470977  0.6699620674693516
  0.4921540921600152  0.2036871180926702  0.6552017923582796
  0.9823837978851062  0.5895276743327031  0.3250514149045713
  0.9551816280053537  0.1830403970586310  0.2971045478621646
  0.9723699895497420  0.0260646964092575  0.4223587824277732
  0.9759579084647626  0.6064772896753835  0.4094238302209219
  0.9663360174352335  0.4552677155246115  0.5216723731790736
  0.9699239364502559  0.0356803087907448  0.5087374209722217
  0.9871122979946442  0.8787046081413715  0.6339916555378392
  0.9599101281148916  0.4722173308672925  0.6060447884954316
  0.2023820772514064  0.4174770605873135  0.2970086315512466
  0.7433031118577648  0.2842407283453285  0.2616597495032645
  0.7819167928019372  0.3547505120864335  0.3339882031883699
  0.2035583515982148  0.0634018603652080  0.2696141708800609
  0.2557876209041183  0.7630389293721991  0.3201455831091622
  0.7562151184628169  0.6558183580553005  0.2885300808134272
  0.7010958918835497  0.0069126520008984  0.3102232869786241
  0.3402521963795181  0.6818534921975096  0.2401146706709233
  0.1936782944731533  0.8490566155172954  0.3986669913894949
  0.7637298093162931  0.6938124706096785  0.3620852646395016
  0.7569984125698255  0.7845198220458617  0.4333805661223559
  0.2037682692192734  0.5131271459218945  0.3712431513390980
  0.2323153310136164  0.2026076771410677  0.4173698422594543
  0.7180750429998828  0.0718028654347228  0.3869858938637127
  0.7173746865730258  0.4288390081122824  0.4125267715864728
  0.2269301885809349  0.1384080300998154  0.3397206951430035
  0.1852955134301719  0.2772251831541338  0.4977156372776469
  0.7540394665171771  0.1192287736147899  0.4613862559715355
  0.7486156315268440  0.2126883896827072  0.5324292120105081
  0.1882544594828207  0.9425162315852121  0.4697099474284602
  0.2249192394269711  0.6329059969877189  0.5185694318135301
  0.7120287739702260  0.5028326709466072  0.4866567381826570
  0.7099785949863814  0.8591373279589258  0.5137263611405480
  0.2302651520297724  0.5589123342533951  0.4444394652173457
  0.1603771331980602  0.7069944931135693  0.5971080002116331
  0.7385256566807223  0.5486178592781079  0.5598530520608970
  0.7399118487485914  0.6442679446126824  0.6340875718487491
  0.1785641166837039  0.3679325345903163  0.5690109387605005
  0.2411980341164484  0.0548323530991022  0.6208729164213721
  0.7153637374190631  0.9233369751001802  0.5913755082569989
  0.6865063050958796  0.2987060757278020  0.6109506202908409
  0.2242188830001147  0.9899421397652712  0.5441103095362899
  0.7387355744017825 -0.0016568551652052  0.6614820325199424
  0.1989908141422329  0.7775042768546739  0.6694364538967381
  0.6020417296204800  0.3798915130024921  0.6909815327290731
  0.1860788075371810  0.4059266471447017  0.6425661225865689
 
  0.00000000E+00  0.00000000E+00  0.00000000E+00
  0.00000000E+00  0.00000000E+00  0.00000000E+00
  0.00000000E+00  0.00000000E+00  0.00000000E+00
  0.00000000E+00  0.00000000E+00  0.00000000E+00
  0.00000000E+00  0.00000000E+00  0.00000000E+00
  0.00000000E+00  0.00000000E+00  0.00000000E+00
  0.00000000E+00  0.00000000E+00  0.00000000E+00
  0.00000000E+00  0.00000000E+00  0.00000000E+00
  0.00000000E+00  0.00000000E+00  0.00000000E+00
  0.00000000E+00  0.00000000E+00  0.00000000E+00
  0.00000000E+00  0.00000000E+00  0.00000000E+00
  0.00000000E+00  0.00000000E+00  0.00000000E+00
  0.00000000E+00  0.00000000E+00  0.00000000E+00
  0.00000000E+00  0.00000000E+00  0.00000000E+00
  0.00000000E+00  0.00000000E+00  0.00000000E+00
  0.00000000E+00  0.00000000E+00  0.00000000E+00
  0.00000000E+00  0.00000000E+00  0.00000000E+00
  0.00000000E+00  0.00000000E+00  0.00000000E+00
  0.00000000E+00  0.00000000E+00  0.00000000E+00
  0.00000000E+00  0.00000000E+00  0.00000000E+00
  0.00000000E+00  0.00000000E+00  0.00000000E+00
  0.00000000E+00  0.00000000E+00  0.00000000E+00
  0.00000000E+00  0.00000000E+00  0.00000000E+00
  0.00000000E+00  0.00000000E+00  0.00000000E+00
  0.00000000E+00  0.00000000E+00  0.00000000E+00
  0.00000000E+00  0.00000000E+00  0.00000000E+00
  0.00000000E+00  0.00000000E+00  0.00000000E+00
  0.00000000E+00  0.00000000E+00  0.00000000E+00
  0.00000000E+00  0.00000000E+00  0.00000000E+00
  0.00000000E+00  0.00000000E+00  0.00000000E+00
  0.00000000E+00  0.00000000E+00  0.00000000E+00
  0.00000000E+00  0.00000000E+00  0.00000000E+00
  0.00000000E+00  0.00000000E+00  0.00000000E+00
  0.00000000E+00  0.00000000E+00  0.00000000E+00
  0.00000000E+00  0.00000000E+00  0.00000000E+00
  0.00000000E+00  0.00000000E+00  0.00000000E+00
  0.00000000E+00  0.00000000E+00  0.00000000E+00
  0.00000000E+00  0.00000000E+00  0.00000000E+00
  0.00000000E+00  0.00000000E+00  0.00000000E+00
  0.00000000E+00  0.00000000E+00  0.00000000E+00
  0.00000000E+00  0.00000000E+00  0.00000000E+00
  0.00000000E+00  0.00000000E+00  0.00000000E+00
  0.00000000E+00  0.00000000E+00  0.00000000E+00
  0.00000000E+00  0.00000000E+00  0.00000000E+00
  0.00000000E+00  0.00000000E+00  0.00000000E+00
  0.00000000E+00  0.00000000E+00  0.00000000E+00
  0.00000000E+00  0.00000000E+00  0.00000000E+00
  0.00000000E+00  0.00000000E+00  0.00000000E+00
  0.00000000E+00  0.00000000E+00  0.00000000E+00
  0.00000000E+00  0.00000000E+00  0.00000000E+00
  0.00000000E+00  0.00000000E+00  0.00000000E+00
  0.00000000E+00  0.00000000E+00  0.00000000E+00
  0.00000000E+00  0.00000000E+00  0.00000000E+00
  0.00000000E+00  0.00000000E+00  0.00000000E+00
