# Compound: Zn8W8O34. Old comment: O34W8
   1.00000000000000     
     4.6673658500000004    0.0000000000000000    0.0000000000000000
    -0.0503960100000000    7.5476530920000000    0.0000000000000000
     0.0000000000000000    0.0000000000000000   37.3228053220000007
   Zn   W    O 
     8     8    34
Direct
  0.4874604303848082  0.7852334283111546  0.2687844059257594
  0.4798329210031831  0.8104203904642869  0.3469719239586039
  0.4837240956210672  0.2264835356426366  0.3595731016527527
  0.4699510297248549  0.2337714535851206  0.4454520620058848
  0.4739535783751509  0.6470400421148806  0.4596555433941130
  0.4601805124789314  0.6543279600573649  0.5455345037472452
  0.4640716870968156  0.0703911052357147  0.5581356814414014
  0.4564441777151975  0.0955780672888445  0.6363231994742384
  0.9638612865530402  0.5099466385435197  0.3074021812458568
  0.0265883793417729  0.0813447838111535  0.2913036271560264
  0.9728482979547628  0.9382183085442791  0.4097499691528935
  0.9789005492850189  0.5174498601196833  0.3948467786604525
  0.9650040588149869  0.3633616354803176  0.5102608267395450
  0.9710563100452412  0.9425931870557206  0.4953576362471043
  0.9173162286582313  0.7994667117888461  0.6138039782439715
  0.9800433215469656  0.3708648570564804  0.5977054241541483
  0.1865441307854028  0.3310623212424414  0.2825071906250834
  0.7779803687828777  0.2306049640516105  0.2609123227515071
  0.7632480429450694  0.2769412347742713  0.3193907282827557
  0.2218691033124854  0.9652315460364037  0.2566145545723000
  0.2536770457192951  0.6755090954756481  0.3074250317329473
  0.7559572229729487  0.5963683364010310  0.2712304312273030
  0.7405556182517192  0.9253138024791699  0.3008271312990510
  0.2506303506179979  0.0545794095926867  0.3306760279917218
  0.1906708181981652  0.7598580940251700  0.3851187610981064
  0.7597288516787615  0.6050908612839501  0.3469628774443411
  0.7546398282878721  0.6959137223614276  0.4190021354315930
  0.1897886820282653  0.4238243179212726  0.3561188227100144
  0.2338075780787743  0.1140372683006725  0.4058025697844966
  0.7206911659826706  0.9888991175671019  0.3746391251827581
  0.7142802254233798  0.3425523558257652  0.3996403345825393
  0.2291540454260645  0.4702447056081743  0.4303258578553266
  0.1892647798121267  0.1848977732385717  0.4861054699684119
  0.7548272509915689  0.0307050471286103  0.4486807686274942
  0.7532337899018406  0.1209534015748371  0.5199888443018907
  0.1890773570084351  0.8501064484713893  0.4564268367725036
  0.2296243826766196  0.5382591398742289  0.5054672708174586
  0.7147505626739409  0.4105667899918254  0.4747817475446783
  0.7100970300212311  0.7667742273993291  0.4993050356155083
  0.2232134421173283  0.8919123780328978  0.5304684802172395
  0.1806565650549269  0.6038702608257286  0.5857168771172424
  0.7541159260717397  0.4569871776787271  0.5489887826899834
  0.7573604773145958  0.5497491743575585  0.6226004147749140
  0.1841757564212368  0.2757206343160501  0.5581447279556568
  0.2033489897482850  0.9554976932208316  0.6042804741009468
  0.6932742574820008  0.8262320860073130  0.5744315774082762
  0.6902275623807107  0.2053024002243460  0.5976825736670506
  0.1879473851270572  0.2844431591989691  0.6338771741726941
  0.7220355046875186  0.9155799495635960  0.6484930508277043
  0.1659242393171208  0.6502065315483961  0.6441952826484978
 
  0.00000000E+00  0.00000000E+00  0.00000000E+00
  0.00000000E+00  0.00000000E+00  0.00000000E+00
  0.00000000E+00  0.00000000E+00  0.00000000E+00
  0.00000000E+00  0.00000000E+00  0.00000000E+00
  0.00000000E+00  0.00000000E+00  0.00000000E+00
  0.00000000E+00  0.00000000E+00  0.00000000E+00
  0.00000000E+00  0.00000000E+00  0.00000000E+00
  0.00000000E+00  0.00000000E+00  0.00000000E+00
  0.00000000E+00  0.00000000E+00  0.00000000E+00
  0.00000000E+00  0.00000000E+00  0.00000000E+00
  0.00000000E+00  0.00000000E+00  0.00000000E+00
  0.00000000E+00  0.00000000E+00  0.00000000E+00
  0.00000000E+00  0.00000000E+00  0.00000000E+00
  0.00000000E+00  0.00000000E+00  0.00000000E+00
  0.00000000E+00  0.00000000E+00  0.00000000E+00
  0.00000000E+00  0.00000000E+00  0.00000000E+00
  0.00000000E+00  0.00000000E+00  0.00000000E+00
  0.00000000E+00  0.00000000E+00  0.00000000E+00
  0.00000000E+00  0.00000000E+00  0.00000000E+00
  0.00000000E+00  0.00000000E+00  0.00000000E+00
  0.00000000E+00  0.00000000E+00  0.00000000E+00
  0.00000000E+00  0.00000000E+00  0.00000000E+00
  0.00000000E+00  0.00000000E+00  0.00000000E+00
  0.00000000E+00  0.00000000E+00  0.00000000E+00
  0.00000000E+00  0.00000000E+00  0.00000000E+00
  0.00000000E+00  0.00000000E+00  0.00000000E+00
  0.00000000E+00  0.00000000E+00  0.00000000E+00
  0.00000000E+00  0.00000000E+00  0.00000000E+00
  0.00000000E+00  0.00000000E+00  0.00000000E+00
  0.00000000E+00  0.00000000E+00  0.00000000E+00
  0.00000000E+00  0.00000000E+00  0.00000000E+00
  0.00000000E+00  0.00000000E+00  0.00000000E+00
  0.00000000E+00  0.00000000E+00  0.00000000E+00
  0.00000000E+00  0.00000000E+00  0.00000000E+00
  0.00000000E+00  0.00000000E+00  0.00000000E+00
  0.00000000E+00  0.00000000E+00  0.00000000E+00
  0.00000000E+00  0.00000000E+00  0.00000000E+00
  0.00000000E+00  0.00000000E+00  0.00000000E+00
  0.00000000E+00  0.00000000E+00  0.00000000E+00
  0.00000000E+00  0.00000000E+00  0.00000000E+00
  0.00000000E+00  0.00000000E+00  0.00000000E+00
  0.00000000E+00  0.00000000E+00  0.00000000E+00
  0.00000000E+00  0.00000000E+00  0.00000000E+00
  0.00000000E+00  0.00000000E+00  0.00000000E+00
  0.00000000E+00  0.00000000E+00  0.00000000E+00
  0.00000000E+00  0.00000000E+00  0.00000000E+00
  0.00000000E+00  0.00000000E+00  0.00000000E+00
  0.00000000E+00  0.00000000E+00  0.00000000E+00
  0.00000000E+00  0.00000000E+00  0.00000000E+00
  0.00000000E+00  0.00000000E+00  0.00000000E+00
