# Compound: Zn8W10O34. Old comment: O34W
   1.00000000000000     
     4.6673658500000004    0.0000000000000000    0.0000000000000000
    -0.0503960100000000    7.5476530920000000    0.0000000000000000
     0.0000000000000000    0.0000000000000000   37.3228053220000007
   Zn   W    O 
     8    10    34
Direct
  0.5042774865659890  0.3289812251146762  0.3733287610939708
  0.4703534924677102  0.9103998824494158  0.3574015610278221
  0.4623732892829524  0.7776220190018286  0.4764545320747676
  0.4736034238973779  0.3650083650397788  0.4602549561841137
  0.4621763017026219  0.2077908061602177  0.5759488526158900
  0.4734064363170474  0.7951771522981694  0.5597492767252278
  0.4654262331322895  0.6623992887505875  0.6788022477721807
  0.4315022390340105  0.2438179461853221  0.6628750477060248
  0.0474958799405134  0.6043245527045819  0.3325296806194432
  0.0504036465875462  0.2638192327684705  0.3125972338360654
  0.9890002168586597  0.0682566615813540  0.4243397923567183
  0.9603250063293041  0.6515683526186898  0.4133841705536981
  0.9672957844343859  0.4946952576014571  0.5255916604249431
  0.9684839411656210  0.0781039136985475  0.5106121483750532
  0.9754547192706957  0.9212308186813082  0.6228196382462985
  0.9467795087413401  0.5045425097186446  0.6118640164432843
  0.8853760790124540  0.3089799385315348  0.7236065749639382
  0.8882838456594861  0.9684746185954162  0.7036741281805605
  0.2853471449715139  0.7648901610284463  0.3137124770441372
  0.0426939039151312  0.2389077517291925  0.2671017257142982
  0.2037214220889755  0.8857538499781319  0.4018601852296048
  0.7778781326609381  0.7296094248305178  0.3653943178159113
  0.7372226755772524  0.4158840771319795  0.3294457614549981
  0.2257967555645660  0.5514087062042460  0.3763668092291739
  0.2486026723233041  0.2436513259849860  0.4191757527774777
  0.7475235536466812  0.1083197270461563  0.3874513369956081
  0.7201482652398578  0.4632753700309092  0.4151384907727518
  0.3052681379742828  0.1382679370933585  0.3412760399807396
  0.1888486550830279  0.3192891673476891  0.5011438477586539
  0.7645320018195865  0.1639589193664183  0.4629932087083233
  0.7530617674798384  0.8278507188406407  0.4366426527538678
  0.1933074589741725  0.9846178383657025  0.4720856274129111
  0.2248654361866166  0.6731968070774732  0.5212814636209413
  0.7129159789076649  0.5431312597185695  0.4904916111948854
  0.7109142894133835  0.8996023641225230  0.5149223451790621
  0.2260732023017771  0.5991907203513489  0.4472399902641113
  0.1827179581201617  0.7449484524593574  0.5995611560461366
  0.7424722666258273  0.5881813329343026  0.5641181813870847
  0.7469310705169716  0.2535100039523089  0.5350599610413495
  0.1712477237804136  0.4088402519335795  0.5732106000916735
  0.2156314603601422  0.1095238011690941  0.6210653180272451
  0.7097065232982221  0.9736084509486491  0.5889638185358923
  0.6871770532766959  0.3291478452150105  0.6170280560225248
  0.2228637466923423  0.0296679115814279  0.5457121976051186
  0.1985570500227467  0.1569150941680253  0.7067580473449989
  0.7099829700354338  0.0213904650957527  0.6598369995708306
  0.7320583035110232  0.6870453213218661  0.6343436235703911
  0.1579015929390620  0.8431897464694802  0.6708094909840920
 -0.1069141783151311  0.3338914194708039  0.7691020830856979
  0.6305115876257174  0.4345312342066398  0.6949277688192573
  0.6504325806284927  0.8079090101715570  0.7224913317558589
  0.1882561719533191  0.4644794442538416  0.6487524718043882
 
  0.00000000E+00  0.00000000E+00  0.00000000E+00
  0.00000000E+00  0.00000000E+00  0.00000000E+00
  0.00000000E+00  0.00000000E+00  0.00000000E+00
  0.00000000E+00  0.00000000E+00  0.00000000E+00
  0.00000000E+00  0.00000000E+00  0.00000000E+00
  0.00000000E+00  0.00000000E+00  0.00000000E+00
  0.00000000E+00  0.00000000E+00  0.00000000E+00
  0.00000000E+00  0.00000000E+00  0.00000000E+00
  0.00000000E+00  0.00000000E+00  0.00000000E+00
  0.00000000E+00  0.00000000E+00  0.00000000E+00
  0.00000000E+00  0.00000000E+00  0.00000000E+00
  0.00000000E+00  0.00000000E+00  0.00000000E+00
  0.00000000E+00  0.00000000E+00  0.00000000E+00
  0.00000000E+00  0.00000000E+00  0.00000000E+00
  0.00000000E+00  0.00000000E+00  0.00000000E+00
  0.00000000E+00  0.00000000E+00  0.00000000E+00
  0.00000000E+00  0.00000000E+00  0.00000000E+00
  0.00000000E+00  0.00000000E+00  0.00000000E+00
  0.00000000E+00  0.00000000E+00  0.00000000E+00
  0.00000000E+00  0.00000000E+00  0.00000000E+00
  0.00000000E+00  0.00000000E+00  0.00000000E+00
  0.00000000E+00  0.00000000E+00  0.00000000E+00
  0.00000000E+00  0.00000000E+00  0.00000000E+00
  0.00000000E+00  0.00000000E+00  0.00000000E+00
  0.00000000E+00  0.00000000E+00  0.00000000E+00
  0.00000000E+00  0.00000000E+00  0.00000000E+00
  0.00000000E+00  0.00000000E+00  0.00000000E+00
  0.00000000E+00  0.00000000E+00  0.00000000E+00
  0.00000000E+00  0.00000000E+00  0.00000000E+00
  0.00000000E+00  0.00000000E+00  0.00000000E+00
  0.00000000E+00  0.00000000E+00  0.00000000E+00
  0.00000000E+00  0.00000000E+00  0.00000000E+00
  0.00000000E+00  0.00000000E+00  0.00000000E+00
  0.00000000E+00  0.00000000E+00  0.00000000E+00
  0.00000000E+00  0.00000000E+00  0.00000000E+00
  0.00000000E+00  0.00000000E+00  0.00000000E+00
  0.00000000E+00  0.00000000E+00  0.00000000E+00
  0.00000000E+00  0.00000000E+00  0.00000000E+00
  0.00000000E+00  0.00000000E+00  0.00000000E+00
  0.00000000E+00  0.00000000E+00  0.00000000E+00
  0.00000000E+00  0.00000000E+00  0.00000000E+00
  0.00000000E+00  0.00000000E+00  0.00000000E+00
  0.00000000E+00  0.00000000E+00  0.00000000E+00
  0.00000000E+00  0.00000000E+00  0.00000000E+00
  0.00000000E+00  0.00000000E+00  0.00000000E+00
  0.00000000E+00  0.00000000E+00  0.00000000E+00
  0.00000000E+00  0.00000000E+00  0.00000000E+00
  0.00000000E+00  0.00000000E+00  0.00000000E+00
  0.00000000E+00  0.00000000E+00  0.00000000E+00
  0.00000000E+00  0.00000000E+00  0.00000000E+00
  0.00000000E+00  0.00000000E+00  0.00000000E+00
  0.00000000E+00  0.00000000E+00  0.00000000E+00
