# Compound: Zn10W10O40. Old comment: O40
   1.00000000000000     
     4.6673658500000004    0.0000000000000000    0.0000000000000000
    -0.0503960100000000    7.5476530920000000    0.0000000000000000
     0.0000000000000000    0.0000000000000000   37.3228053220000007
   Zn   W    O 
    10    10    40
Direct
  0.4725657031206545  0.7800324481692943  0.2671389238834964
  0.4765321035626233  0.7805438466394878  0.3454268653904776
  0.4980517036416515  0.2089095620126545  0.3564640684270542
  0.4704517743317775  0.2109105946298963  0.4422154097713206
  0.4749675277576351  0.6253913522761892  0.4570319786318905
  0.4630559827423603  0.6347306247238079  0.5429680213681094
  0.4675717362682197  0.0492113823701079  0.5577845902286793
  0.4399718069583458  0.0512124149873498  0.6435359315729456
  0.4614914070373740  0.4795781303605097  0.6545731346095229
  0.4654578073793409  0.4800895287307013  0.7328610761165034
  0.9531097744430473  0.4910838599807577  0.3037465845000872
  0.0336832114599258  0.0790960734006056  0.2923606378060370
  0.9688095683291762  0.9147366904269987  0.4073571059640507
  0.9823577419237742  0.4937599406577940  0.3919569153077302
  0.9673188380865471  0.3400706081710030  0.5067732586462753
  0.9707046725134502  0.9200513687289930  0.4932267413537242
  0.9556657686762230  0.7663620362422089  0.6080430846922694
  0.9692139422708210  0.3453852864730039  0.5926428940359505
  0.9043402990400763  0.1810259034993897  0.7076393621939635
  0.9849137361569499  0.7690381169192450  0.6962534154999134
  0.1607391950793481  0.3141088305799070  0.2774135011391893
  0.7545932229406428  0.5814992685917956  0.3443596789380398
  0.7575805583876174  0.2578682619458335  0.3147653057867260
  0.2167185140192076  0.9716931845629697  0.2551444078441816
  0.2414595186143318  0.6595756890610294  0.3043697017139759
  0.7367888689657260  0.5795321726876365  0.2686112672234672
  0.7367420947585540  0.9247576709615151  0.2952454544299217
  0.2512083944051651  0.0240562751696954  0.3298154230008493
  0.1881609719859846  0.7354341775793471  0.3829280177508214
  0.7507848303881437  0.0059971497363500  0.4461695341907397
  0.7538489340840526  0.6718364904031573  0.4163280652962322
  0.1904819766240453  0.4016975182407839  0.3530760338113553
  0.2310732317477507  0.0893953106591091  0.4030182332776664
  0.7194820761401057  0.9641763870192159  0.3716624577935077
  0.7164404817765788  0.3190054761467770  0.3971950326710056
  0.2300737213361711  0.4463748655405824  0.4275980974611602
  0.1862035545005067  0.1620506225653238  0.4826086467938271
  0.7516532807163170  0.4332570199042047  0.5459309079801660
  0.7518199560994908  0.0980713543346788  0.5173913532061732
  0.1863702298836804  0.8268649569957909  0.4540690920198340
  0.2276105834165266  0.5168296269069543  0.5024816202948417
  0.7122806267956378  0.3880982152161541  0.4718565269211756
  0.7104129271834703  0.7432923500930428  0.4975183797051582
  0.2257428837043573  0.8720237616838490  0.5281434730788249
  0.1841745764159505  0.5882854864968452  0.5836719347037675
  0.7475415339759519  0.8584244586592177  0.6469239661886447
  0.7498625385140105  0.5246877993206553  0.6170719822491780
  0.1872386802118532  0.2541248271636525  0.5538304658092599
  0.2215830288234185  0.9411165008532207  0.6028049673289944
  0.7079497892638258  0.8137471113594199  0.5724019025388399
  0.7069502787522446  0.1707266663408881  0.5969817667223336
  0.2185414344598917  0.2959455898807867  0.6283375422064933
  0.1804429522123800  0.0022537149541618  0.6852346942132738
  0.7213049965807896  0.2884287923370258  0.7448555921558183
  0.7772843155206495  0.9460131463200955  0.7225864988608104
  0.1834302876593547  0.6786227083082069  0.6556403210619596
  0.2012814158414429  0.3353643060384895  0.7047545455700780
  0.6868151160948377  0.2360657017303072  0.6701845769991510
  0.6965639919856658  0.6005462879389678  0.6956302982860243
  0.2012346416342705  0.6805898042123589  0.7313887327765330
 
  0.00000000E+00  0.00000000E+00  0.00000000E+00
  0.00000000E+00  0.00000000E+00  0.00000000E+00
  0.00000000E+00  0.00000000E+00  0.00000000E+00
  0.00000000E+00  0.00000000E+00  0.00000000E+00
  0.00000000E+00  0.00000000E+00  0.00000000E+00
  0.00000000E+00  0.00000000E+00  0.00000000E+00
  0.00000000E+00  0.00000000E+00  0.00000000E+00
  0.00000000E+00  0.00000000E+00  0.00000000E+00
  0.00000000E+00  0.00000000E+00  0.00000000E+00
  0.00000000E+00  0.00000000E+00  0.00000000E+00
  0.00000000E+00  0.00000000E+00  0.00000000E+00
  0.00000000E+00  0.00000000E+00  0.00000000E+00
  0.00000000E+00  0.00000000E+00  0.00000000E+00
  0.00000000E+00  0.00000000E+00  0.00000000E+00
  0.00000000E+00  0.00000000E+00  0.00000000E+00
  0.00000000E+00  0.00000000E+00  0.00000000E+00
  0.00000000E+00  0.00000000E+00  0.00000000E+00
  0.00000000E+00  0.00000000E+00  0.00000000E+00
  0.00000000E+00  0.00000000E+00  0.00000000E+00
  0.00000000E+00  0.00000000E+00  0.00000000E+00
  0.00000000E+00  0.00000000E+00  0.00000000E+00
  0.00000000E+00  0.00000000E+00  0.00000000E+00
  0.00000000E+00  0.00000000E+00  0.00000000E+00
  0.00000000E+00  0.00000000E+00  0.00000000E+00
  0.00000000E+00  0.00000000E+00  0.00000000E+00
  0.00000000E+00  0.00000000E+00  0.00000000E+00
  0.00000000E+00  0.00000000E+00  0.00000000E+00
  0.00000000E+00  0.00000000E+00  0.00000000E+00
  0.00000000E+00  0.00000000E+00  0.00000000E+00
  0.00000000E+00  0.00000000E+00  0.00000000E+00
  0.00000000E+00  0.00000000E+00  0.00000000E+00
  0.00000000E+00  0.00000000E+00  0.00000000E+00
  0.00000000E+00  0.00000000E+00  0.00000000E+00
  0.00000000E+00  0.00000000E+00  0.00000000E+00
  0.00000000E+00  0.00000000E+00  0.00000000E+00
  0.00000000E+00  0.00000000E+00  0.00000000E+00
  0.00000000E+00  0.00000000E+00  0.00000000E+00
  0.00000000E+00  0.00000000E+00  0.00000000E+00
  0.00000000E+00  0.00000000E+00  0.00000000E+00
  0.00000000E+00  0.00000000E+00  0.00000000E+00
  0.00000000E+00  0.00000000E+00  0.00000000E+00
  0.00000000E+00  0.00000000E+00  0.00000000E+00
  0.00000000E+00  0.00000000E+00  0.00000000E+00
  0.00000000E+00  0.00000000E+00  0.00000000E+00
  0.00000000E+00  0.00000000E+00  0.00000000E+00
  0.00000000E+00  0.00000000E+00  0.00000000E+00
  0.00000000E+00  0.00000000E+00  0.00000000E+00
  0.00000000E+00  0.00000000E+00  0.00000000E+00
  0.00000000E+00  0.00000000E+00  0.00000000E+00
  0.00000000E+00  0.00000000E+00  0.00000000E+00
  0.00000000E+00  0.00000000E+00  0.00000000E+00
  0.00000000E+00  0.00000000E+00  0.00000000E+00
  0.00000000E+00  0.00000000E+00  0.00000000E+00
  0.00000000E+00  0.00000000E+00  0.00000000E+00
  0.00000000E+00  0.00000000E+00  0.00000000E+00
  0.00000000E+00  0.00000000E+00  0.00000000E+00
  0.00000000E+00  0.00000000E+00  0.00000000E+00
  0.00000000E+00  0.00000000E+00  0.00000000E+00
  0.00000000E+00  0.00000000E+00  0.00000000E+00
  0.00000000E+00  0.00000000E+00  0.00000000E+00
