# Compound: Zn8W8O34. Old comment: O34W8
   1.00000000000000     
     4.6673658500000004    0.0000000000000000    0.0000000000000000
    -0.0503960100000000    7.5476530920000000    0.0000000000000000
     0.0000000000000000    0.0000000000000000   37.3228053220000007
   Zn   W    O 
     8     8    34
Direct
  0.6326457906524703  0.1975723828058129  0.3661945498511244
  0.3081670163128115 -0.0764336164446881  0.3305376207252030
  0.4645500822844785  0.8223835620413400  0.5071895449431061
  0.4742267707606176  0.4020433231700821  0.4887575717387228
  0.4579156422393835  0.2442345790299153  0.6061348228612796
  0.4675923308155243  0.8238943401586578  0.5877028496568890
  0.6239753967871919  0.7227115186446857  0.7643547738747993
  0.2994966223475307  0.4487055194941866  0.7286978447488707
  0.8734478385837502  0.6378157027291177  0.3557085515033918
  0.9726442497037375  0.7013505404450099  0.4456846209583168
 -0.0303031623148301  0.1172511259194284  0.4517197083496598
  0.9721089459978063  0.1168416257041531  0.5392180753984116
  0.9600334671021966  0.5294362765958466  0.5556743192015835
  0.9624455754148319  0.5290267763805718  0.6431726862503431
  0.9594981633962654  0.9449273618549897  0.6492077736416786
  0.0586945744162507  0.0084621995708819  0.7391838430966104
  0.0791250864646149  0.7270595271275628  0.3187998210891141
  0.6152254598467460  0.0751530999959795  0.3204054601412089
  0.1570738214041764  0.9252757676712728  0.4288211983860882
  0.5852182752984315  0.7813330233448182  0.3637704140920324
  0.7347109310041982  0.4263783654395216  0.3449338435564914
  0.0872566373020353  0.6290893066805275  0.3964669089373242
  0.2360153523248418  0.2844088195525079  0.4507119179477310
  0.7508501304739494  0.1750151360352601  0.4141858059096440
  0.7137417833326655  0.5298873665842175  0.4456814251182545
  0.2274464996167042  0.1297156569431177  0.3589359099021838
  0.1859165989525319  0.3553280827015267  0.5303397404690234
  0.7525676729114135  0.2018441584636433  0.4919169234619696
  0.7356055085687653  0.8706704732492276  0.4659864951425243
  0.1838540762898979  0.0219134121082105  0.5004561670045289
  0.2227962782834419  0.7069490689775620  0.5502125532410262
  0.7110908199775401  0.5809583364703361  0.5201956582397106
  0.7093461348165606  0.9393288332224358  0.5446798413589760
  0.2337376586308034  0.6389870119656891  0.4778797017480382
  0.1965369045312379  0.7756074290507720  0.6289058994574775
  0.7482883368101045  0.6243644901917894  0.5944362275954663
  0.7462258140474700  0.2909498195984729  0.5645526541309788
  0.1795747401885894  0.4444337438363561  0.6029754711380250
  0.2184006297673378  0.1163905356157807  0.6492109694817475
  0.6984047543691990  0.0072908903343116  0.6170126928519635
  0.6961270607751611  0.3618690826474900  0.6441804766522716
  0.2210515931224626  0.0653195658296626  0.5746967363602916
  0.1974314820957973  0.2198995368604784  0.7499585510435099
  0.8448857757979680  0.0171885956194798  0.6984254856626774
  0.7750685916958273  0.7210021346287268  0.6660711962139144
  0.3469241377015692  0.8649448789551814  0.7311219805079703
  0.3169169532532570  0.5711248022040262  0.7744869344587870
  0.7046959134832974  0.5165622453568820  0.7359564846978183
  0.8530173265353862  0.9192183750724350  0.7760925735108873
  0.1812922826260540  0.4712627662647399  0.6807065886903582
 
  0.00000000E+00  0.00000000E+00  0.00000000E+00
  0.00000000E+00  0.00000000E+00  0.00000000E+00
  0.00000000E+00  0.00000000E+00  0.00000000E+00
  0.00000000E+00  0.00000000E+00  0.00000000E+00
  0.00000000E+00  0.00000000E+00  0.00000000E+00
  0.00000000E+00  0.00000000E+00  0.00000000E+00
  0.00000000E+00  0.00000000E+00  0.00000000E+00
  0.00000000E+00  0.00000000E+00  0.00000000E+00
  0.00000000E+00  0.00000000E+00  0.00000000E+00
  0.00000000E+00  0.00000000E+00  0.00000000E+00
  0.00000000E+00  0.00000000E+00  0.00000000E+00
  0.00000000E+00  0.00000000E+00  0.00000000E+00
  0.00000000E+00  0.00000000E+00  0.00000000E+00
  0.00000000E+00  0.00000000E+00  0.00000000E+00
  0.00000000E+00  0.00000000E+00  0.00000000E+00
  0.00000000E+00  0.00000000E+00  0.00000000E+00
  0.00000000E+00  0.00000000E+00  0.00000000E+00
  0.00000000E+00  0.00000000E+00  0.00000000E+00
  0.00000000E+00  0.00000000E+00  0.00000000E+00
  0.00000000E+00  0.00000000E+00  0.00000000E+00
  0.00000000E+00  0.00000000E+00  0.00000000E+00
  0.00000000E+00  0.00000000E+00  0.00000000E+00
  0.00000000E+00  0.00000000E+00  0.00000000E+00
  0.00000000E+00  0.00000000E+00  0.00000000E+00
  0.00000000E+00  0.00000000E+00  0.00000000E+00
  0.00000000E+00  0.00000000E+00  0.00000000E+00
  0.00000000E+00  0.00000000E+00  0.00000000E+00
  0.00000000E+00  0.00000000E+00  0.00000000E+00
  0.00000000E+00  0.00000000E+00  0.00000000E+00
  0.00000000E+00  0.00000000E+00  0.00000000E+00
  0.00000000E+00  0.00000000E+00  0.00000000E+00
  0.00000000E+00  0.00000000E+00  0.00000000E+00
  0.00000000E+00  0.00000000E+00  0.00000000E+00
  0.00000000E+00  0.00000000E+00  0.00000000E+00
  0.00000000E+00  0.00000000E+00  0.00000000E+00
  0.00000000E+00  0.00000000E+00  0.00000000E+00
  0.00000000E+00  0.00000000E+00  0.00000000E+00
  0.00000000E+00  0.00000000E+00  0.00000000E+00
  0.00000000E+00  0.00000000E+00  0.00000000E+00
  0.00000000E+00  0.00000000E+00  0.00000000E+00
  0.00000000E+00  0.00000000E+00  0.00000000E+00
  0.00000000E+00  0.00000000E+00  0.00000000E+00
  0.00000000E+00  0.00000000E+00  0.00000000E+00
  0.00000000E+00  0.00000000E+00  0.00000000E+00
  0.00000000E+00  0.00000000E+00  0.00000000E+00
  0.00000000E+00  0.00000000E+00  0.00000000E+00
  0.00000000E+00  0.00000000E+00  0.00000000E+00
  0.00000000E+00  0.00000000E+00  0.00000000E+00
  0.00000000E+00  0.00000000E+00  0.00000000E+00
  0.00000000E+00  0.00000000E+00  0.00000000E+00
