# Compound: Zn8W10O38. Old comment: O38W
   1.00000000000000     
     4.6673658500000004    0.0000000000000000    0.0000000000000000
    -0.0503960100000000    7.5476530920000000    0.0000000000000000
     0.0000000000000000    0.0000000000000000   37.3228053220000007
   Zn   W    O 
     8    10    38
Direct
  0.4822749406254688  0.2587975480148915  0.3729395804185125
  0.4697800110097324  0.8407255177631243  0.3565716762752014
  0.4747554812472878  0.6868977499409546  0.4697987683458270
  0.4702760868741220  0.2730139447247702  0.4558496358216149
  0.4661367416258744  0.1116947337752271  0.5701389623783860
  0.4616573472527157  0.6978109285590427  0.5561898298541748
  0.4666328174902711  0.5439831607368730  0.6694169219247925
  0.4541378878745347  0.1259111304851057  0.6530490177814897
  0.9825434321404320  0.5779121610989501  0.3169925789605396
  0.0359208769680309  0.1860542283379943  0.3087754139695155
  0.9730280166835912  0.9736655716680397  0.4200354386216020
  0.9839659858282253  0.5556534715588671  0.4047963540517986
  0.9656769948764401  0.4025730525538044  0.5199408016333668
  0.9707358336235634  0.9821356259462006  0.5060477965666347
  0.9524468426717783  0.8290552069411302  0.6211922441482026
  0.9633848118164122  0.4110431068319575  0.6059531595783998
  0.9004919515319727  0.1986544501620102  0.7172131842304861
  0.9538693963595715  0.8067965174010473  0.7089960192394547
  0.1988289787954836  0.3877675381421080  0.2903499416522520
  0.7499465976103963  0.3095313549593877  0.3305462257458476
  0.2492574280881393  0.7451119133428943  0.3159823870383496
  0.7515217225216994  0.6352805514851366  0.2834756554606747
  0.9040184893658532  0.0420439857248411  0.2771355956791688
  0.2831863280131080  0.0799401506615571  0.3397093844309103
  0.2014721865918345  0.7968788235761913  0.3969384583303901
  0.7687760658746143  0.6522452752207964  0.3582008615665856
  0.7592549429548118  0.7348275894161489  0.4295631747249140
  0.1981359235404724  0.4613506424907315  0.3666313644509392
  0.2385052202689155  0.1493514674440784  0.4158547397288517
  0.7371660177815001  0.0204401919808634  0.3826517212394379
  0.7210317440952685  0.3802940166014082  0.4104526809686350
  0.2321536313032710  0.5082000360165181  0.4407052155316187
  0.1862448653833337  0.2242323814546109  0.4958799750914427
  0.7544417796437765  0.0684218100692408  0.4584234522749803
  0.7501679631166625  0.1604762970453864  0.5301086231085521
  0.1896934816730007  0.8897923013922678  0.4672863771206038
  0.2267558263897868  0.5786731541721878  0.5158348263432670
  0.7129133714981047  0.4509261223089316  0.4848236929991810
  0.7096570021102170  0.8060355242278149  0.5101537718567273
  0.2234994570018985  0.9337825561910661  0.5411649052008196
  0.1771578855451920  0.6498810890838485  0.5964254234750883
  0.7467193468270026  0.4949163771077369  0.5587022210793972
  0.7349406419081692  0.5878298549238060  0.6290501398696122
  0.1819710488562277  0.3162868684307564  0.5675651459250216
  0.2153810844047349  0.0044146617985946  0.6155359172313671
  0.7042591971967245  0.8765086424834793  0.5852833826683830
  0.6979076082310877  0.2353572109559243  0.6101338584711433
  0.1992468107185035  0.3642684865191341  0.6433368769605635
  0.1864662308896004  0.0751773235406163  0.6954423724541540
  0.7382769049595309  0.9233580360092665  0.6593572337490625
  0.7375838497045196 -0.0030588596421107  0.7356386565477497
  0.1676367626253885  0.7324634032792009  0.6677877366334160
  0.0323943391341431  0.3426646926751546  0.7488530025208322
  0.6532265004868947  0.3047685278384402  0.6862792137690924
  0.6871554004118646  0.6395967650571084  0.7100062111616512
  0.1848911059783037  0.7494281270148678  0.7425129427393264
 
  0.00000000E+00  0.00000000E+00  0.00000000E+00
  0.00000000E+00  0.00000000E+00  0.00000000E+00
  0.00000000E+00  0.00000000E+00  0.00000000E+00
  0.00000000E+00  0.00000000E+00  0.00000000E+00
  0.00000000E+00  0.00000000E+00  0.00000000E+00
  0.00000000E+00  0.00000000E+00  0.00000000E+00
  0.00000000E+00  0.00000000E+00  0.00000000E+00
  0.00000000E+00  0.00000000E+00  0.00000000E+00
  0.00000000E+00  0.00000000E+00  0.00000000E+00
  0.00000000E+00  0.00000000E+00  0.00000000E+00
  0.00000000E+00  0.00000000E+00  0.00000000E+00
  0.00000000E+00  0.00000000E+00  0.00000000E+00
  0.00000000E+00  0.00000000E+00  0.00000000E+00
  0.00000000E+00  0.00000000E+00  0.00000000E+00
  0.00000000E+00  0.00000000E+00  0.00000000E+00
  0.00000000E+00  0.00000000E+00  0.00000000E+00
  0.00000000E+00  0.00000000E+00  0.00000000E+00
  0.00000000E+00  0.00000000E+00  0.00000000E+00
  0.00000000E+00  0.00000000E+00  0.00000000E+00
  0.00000000E+00  0.00000000E+00  0.00000000E+00
  0.00000000E+00  0.00000000E+00  0.00000000E+00
  0.00000000E+00  0.00000000E+00  0.00000000E+00
  0.00000000E+00  0.00000000E+00  0.00000000E+00
  0.00000000E+00  0.00000000E+00  0.00000000E+00
  0.00000000E+00  0.00000000E+00  0.00000000E+00
  0.00000000E+00  0.00000000E+00  0.00000000E+00
  0.00000000E+00  0.00000000E+00  0.00000000E+00
  0.00000000E+00  0.00000000E+00  0.00000000E+00
  0.00000000E+00  0.00000000E+00  0.00000000E+00
  0.00000000E+00  0.00000000E+00  0.00000000E+00
  0.00000000E+00  0.00000000E+00  0.00000000E+00
  0.00000000E+00  0.00000000E+00  0.00000000E+00
  0.00000000E+00  0.00000000E+00  0.00000000E+00
  0.00000000E+00  0.00000000E+00  0.00000000E+00
  0.00000000E+00  0.00000000E+00  0.00000000E+00
  0.00000000E+00  0.00000000E+00  0.00000000E+00
  0.00000000E+00  0.00000000E+00  0.00000000E+00
  0.00000000E+00  0.00000000E+00  0.00000000E+00
  0.00000000E+00  0.00000000E+00  0.00000000E+00
  0.00000000E+00  0.00000000E+00  0.00000000E+00
  0.00000000E+00  0.00000000E+00  0.00000000E+00
  0.00000000E+00  0.00000000E+00  0.00000000E+00
  0.00000000E+00  0.00000000E+00  0.00000000E+00
  0.00000000E+00  0.00000000E+00  0.00000000E+00
  0.00000000E+00  0.00000000E+00  0.00000000E+00
  0.00000000E+00  0.00000000E+00  0.00000000E+00
  0.00000000E+00  0.00000000E+00  0.00000000E+00
  0.00000000E+00  0.00000000E+00  0.00000000E+00
  0.00000000E+00  0.00000000E+00  0.00000000E+00
  0.00000000E+00  0.00000000E+00  0.00000000E+00
  0.00000000E+00  0.00000000E+00  0.00000000E+00
  0.00000000E+00  0.00000000E+00  0.00000000E+00
  0.00000000E+00  0.00000000E+00  0.00000000E+00
  0.00000000E+00  0.00000000E+00  0.00000000E+00
  0.00000000E+00  0.00000000E+00  0.00000000E+00
  0.00000000E+00  0.00000000E+00  0.00000000E+00
