# Compound: Zn10W10O38. Old comment: O38
   1.00000000000000     
     4.6673658500000004    0.0000000000000000    0.0000000000000000
    -0.0503960100000000    7.5476530920000000    0.0000000000000000
     0.0000000000000000    0.0000000000000000   37.3228053220000007
   Zn   W    O 
    10    10    38
Direct
  0.4896968325031835  0.9670314809662994  0.3029078284740080
  0.4797448600336160  0.5997861638765263  0.2862875696282642
  0.4860008205353356  0.3840850403081371  0.4049947201891467
  0.4870561801211890  0.9687081905911840  0.3902168954930750
  0.4687255313090918  0.8187597891869965  0.5049185688201346
  0.4696145306909099  0.4015059153130050  0.4899738257798660
  0.4512838818788127  0.2515575139088101  0.6046754991069261
  0.4523392414646662  0.8361806642918591  0.5898976744108470
  0.4585952019663859  0.6204795406234749  0.7086048249717363
  0.4486432294968181  0.2532342236337033  0.6919845661259924
  0.8284064604367322  0.2035619244238940  0.2596537937495491
  0.9894142973895945  0.2656193042599139  0.3396861091500732
 -0.0056273487508232  0.6759022282491908  0.3549349982982518
  0.9765237715162490  0.6806977389272594  0.4404214300445405
  0.9741704656355382  0.1024497669157594  0.4544543512685863
  0.9641695963644635  0.1178159376842434  0.5404380433314153
  0.9618162905837545  0.5395679656727362  0.5544709645554529
  0.9439674107508252  0.5443634763508048  0.6399573963017493
  0.9489257646104072  0.9546464003400885  0.6552062854499278
  0.1099336015632694  0.0167037801761088  0.7352386008504522
  0.1878168080266333  0.4961840747059597  0.3274672167491970
  0.6885315519937272  0.3834646018189296  0.2874175610380774
  0.6857722655393064  0.1775398918568529  0.2172337002032871
  0.1406688173245123  0.1663891787910468  0.2962592080613630
  0.2541880943794994  0.8534576929902911  0.3513103053176741
  0.7511833569430298  0.7354867503178317  0.3211240094474764
  0.7127229985178239  0.0936441234461311  0.3416573970969554
  0.3561291344297864  0.8118120645591445  0.2687904012012032
  0.1947076532813700  0.9253784436993688  0.4303770113787819
  0.7661096159812539  0.7669377900857036  0.3940724739145892
  0.7628950678801510  0.4341388890178760  0.3645892838967813
  0.2008522511123834  0.5858493877869885  0.4022805676207875
  0.2337251396647642  0.2795694582421300  0.4496260367110306
  0.7170083670528880  0.1485287549172966  0.4191290678776709
  0.7213302651234004  0.5031493072490713  0.4452992424084041
  0.2364116574037339  0.2066606703308627  0.3737768447132011
  0.1831809270028961  0.3600148659611163  0.5301057462971114
  0.7526568811085637  0.1989866684345981  0.4933289498926639
  0.7551591349971050  0.8602508386388793  0.4647866483028890
  0.1856831808914383  0.0212790361654047  0.5015634447073298
  0.2170097969766034  0.7171163972509297  0.5495931521915967
  0.7064772791808410  0.5825934610641927  0.5193953847198183
  0.7046149223352375  0.9406962462578641  0.5452663578889699
  0.2318627828191607  0.6376722435358100  0.4754970098801820
  0.1754449941198506  0.7861268155821259  0.6303031107032195
  0.7374878109876200  0.6344163168130142  0.5926118269792128
  0.7436324087186313  0.2948872609006342  0.5645153832212185
  0.1722304460187482  0.4533279145142919  0.6008199206854109
  0.2256170634821776  0.1266215810538699  0.6532349975030448
  0.7019284045962680  0.0136050342691330  0.6211155498867988
  0.6841519676205020  0.3668080115097093  0.6435820892823265
  0.2213316949471139  0.0717369496826987  0.5757633267223299
  0.2525677965606911  0.0427258127431428  0.7776586943967135
  0.7976712446754899  0.0538765258089560  0.6986331865386369
  0.7505232539733684  0.7240816298940365  0.6674251778508036
  0.2498085100062750  0.8368011027810727  0.7074748335619233
  0.5822109275702145  0.4084536400408578  0.7261019933987970
  0.1871567051569736  0.4847789542821712  0.6737683851525245
 
  0.00000000E+00  0.00000000E+00  0.00000000E+00
  0.00000000E+00  0.00000000E+00  0.00000000E+00
  0.00000000E+00  0.00000000E+00  0.00000000E+00
  0.00000000E+00  0.00000000E+00  0.00000000E+00
  0.00000000E+00  0.00000000E+00  0.00000000E+00
  0.00000000E+00  0.00000000E+00  0.00000000E+00
  0.00000000E+00  0.00000000E+00  0.00000000E+00
  0.00000000E+00  0.00000000E+00  0.00000000E+00
  0.00000000E+00  0.00000000E+00  0.00000000E+00
  0.00000000E+00  0.00000000E+00  0.00000000E+00
  0.00000000E+00  0.00000000E+00  0.00000000E+00
  0.00000000E+00  0.00000000E+00  0.00000000E+00
  0.00000000E+00  0.00000000E+00  0.00000000E+00
  0.00000000E+00  0.00000000E+00  0.00000000E+00
  0.00000000E+00  0.00000000E+00  0.00000000E+00
  0.00000000E+00  0.00000000E+00  0.00000000E+00
  0.00000000E+00  0.00000000E+00  0.00000000E+00
  0.00000000E+00  0.00000000E+00  0.00000000E+00
  0.00000000E+00  0.00000000E+00  0.00000000E+00
  0.00000000E+00  0.00000000E+00  0.00000000E+00
  0.00000000E+00  0.00000000E+00  0.00000000E+00
  0.00000000E+00  0.00000000E+00  0.00000000E+00
  0.00000000E+00  0.00000000E+00  0.00000000E+00
  0.00000000E+00  0.00000000E+00  0.00000000E+00
  0.00000000E+00  0.00000000E+00  0.00000000E+00
  0.00000000E+00  0.00000000E+00  0.00000000E+00
  0.00000000E+00  0.00000000E+00  0.00000000E+00
  0.00000000E+00  0.00000000E+00  0.00000000E+00
  0.00000000E+00  0.00000000E+00  0.00000000E+00
  0.00000000E+00  0.00000000E+00  0.00000000E+00
  0.00000000E+00  0.00000000E+00  0.00000000E+00
  0.00000000E+00  0.00000000E+00  0.00000000E+00
  0.00000000E+00  0.00000000E+00  0.00000000E+00
  0.00000000E+00  0.00000000E+00  0.00000000E+00
  0.00000000E+00  0.00000000E+00  0.00000000E+00
  0.00000000E+00  0.00000000E+00  0.00000000E+00
  0.00000000E+00  0.00000000E+00  0.00000000E+00
  0.00000000E+00  0.00000000E+00  0.00000000E+00
  0.00000000E+00  0.00000000E+00  0.00000000E+00
  0.00000000E+00  0.00000000E+00  0.00000000E+00
  0.00000000E+00  0.00000000E+00  0.00000000E+00
  0.00000000E+00  0.00000000E+00  0.00000000E+00
  0.00000000E+00  0.00000000E+00  0.00000000E+00
  0.00000000E+00  0.00000000E+00  0.00000000E+00
  0.00000000E+00  0.00000000E+00  0.00000000E+00
  0.00000000E+00  0.00000000E+00  0.00000000E+00
  0.00000000E+00  0.00000000E+00  0.00000000E+00
  0.00000000E+00  0.00000000E+00  0.00000000E+00
  0.00000000E+00  0.00000000E+00  0.00000000E+00
  0.00000000E+00  0.00000000E+00  0.00000000E+00
  0.00000000E+00  0.00000000E+00  0.00000000E+00
  0.00000000E+00  0.00000000E+00  0.00000000E+00
  0.00000000E+00  0.00000000E+00  0.00000000E+00
  0.00000000E+00  0.00000000E+00  0.00000000E+00
  0.00000000E+00  0.00000000E+00  0.00000000E+00
  0.00000000E+00  0.00000000E+00  0.00000000E+00
  0.00000000E+00  0.00000000E+00  0.00000000E+00
  0.00000000E+00  0.00000000E+00  0.00000000E+00
