# Compound: Zn10W8O34. Old comment: O34W
   1.00000000000000     
     4.6673658500000004    0.0000000000000000    0.0000000000000000
    -0.0503960100000000    7.5476530920000000    0.0000000000000000
     0.0000000000000000    0.0000000000000000   37.3228053220000007
   Zn   W    O 
    10     8    34
Direct
  0.5150028288971287  0.8108258904585497  0.2796361645198711
  0.5634883347579797  0.3668701684147201  0.2751973348617832
  0.4858168624877924  0.2578709919115034  0.3676802175878411
  0.4685001754004482  0.8605759822332596  0.3557586496691038
  0.4702946678494401  0.6867531835948436  0.4711350424056426
  0.4723158095505622  0.2719432972051500  0.4548535557943574
  0.4741103020995489  0.0981204985667407  0.5702299485308965
  0.4567936149122099  0.7008254888884971  0.5583083806121585
  0.3791221426420235  0.5918263123852801  0.6507912633382171
  0.4276076486028756  0.1478705903414509  0.6463524336801291
  0.9762610909775978  0.5379339235569361  0.3220965739005409
  0.0209174648249045  0.1056283593134336  0.2963413227896476
  0.9743509089927435  0.9772053350942791  0.4200700549369931
  0.9739647908945944  0.5577650671856527  0.4063708630368817
  0.9686456866054097  0.4009314136143484  0.5196177351631189
  0.9682595684072589  0.9814911457057214  0.5059185432630069
  0.9216930125750976  0.8530681214865669  0.6296472754103531
  0.9663493865224063  0.4207625572430646  0.6038920242994591
  0.1964601495962666  0.3671208201177297  0.2936951803017573
  0.8037270620393523  0.1941388816288628  0.2585813686910543
  0.7676403135895185  0.3124905026690420  0.3278194281472911
  0.2462514570393080 -0.0188794896525635  0.2660110915195444
  0.2565339831732502  0.7063612408241411  0.3172667203171597
  0.7501793771002073  0.6029665729951099  0.2815615442082471
  0.7618266557680539  0.9433925612232499  0.3125750062673973
  0.2550343149165310  0.0929106406420028  0.3374587692572635
  0.1897218619614892  0.7982482008730132  0.3955482730080466
  0.7573606640832659  0.6448793193874089  0.3581650583662676
  0.7535723019501746  0.7337267579831862  0.4303448631541251
  0.1926148290177024  0.4618801896845502  0.3674356054665198
  0.2329713297846440  0.1532604945601670  0.4155382493853996
  0.7189750433137698  0.0264427132678525  0.3854320540747468
  0.7127405657900600  0.3810557005753871  0.4093893721374786
  0.2273724643777837  0.5083161735359792  0.4413045536142857
  0.1890381755498226  0.2249697228168140  0.4956437350458749
  0.7548407852254072  0.0695868636040365  0.4591360088948480
  0.7528886154385127  0.1604482799269809  0.5304403251919527
  0.1877696921745955  0.8891096171959642  0.4668525893051520
  0.2298699117099445  0.5776407801246188  0.5165992260625215
  0.7152380130222190  0.4503803072640143  0.4846840445857215
  0.7096391476153584  0.8054359861398322  0.5104503488145931
  0.2236354340862327  0.9322537675321481  0.5405565441252530
  0.1749701638104843  0.6462059781309588  0.5981691700527090
  0.7499956484823016  0.4968162911154503  0.5585529927334806
  0.7461503278037356  0.5915756606822710  0.6322934178982421
  0.1852498134167385  0.3138171614125917  0.5678235398337326
  0.1807838216319487  0.0153039194767491  0.6134135919326026
  0.6875761625834660  0.8657858401579980  0.5885298289427362
  0.6860764942267527  0.2523352398758645  0.6087218778828395
  0.1924311003997963  0.3557299078048909  0.6444270539917527
  0.6963590203606946  0.9775759704525639  0.6599775066804563
  0.1388834153606504  0.7645575991711302  0.6674072295089457
 
  0.00000000E+00  0.00000000E+00  0.00000000E+00
  0.00000000E+00  0.00000000E+00  0.00000000E+00
  0.00000000E+00  0.00000000E+00  0.00000000E+00
  0.00000000E+00  0.00000000E+00  0.00000000E+00
  0.00000000E+00  0.00000000E+00  0.00000000E+00
  0.00000000E+00  0.00000000E+00  0.00000000E+00
  0.00000000E+00  0.00000000E+00  0.00000000E+00
  0.00000000E+00  0.00000000E+00  0.00000000E+00
  0.00000000E+00  0.00000000E+00  0.00000000E+00
  0.00000000E+00  0.00000000E+00  0.00000000E+00
  0.00000000E+00  0.00000000E+00  0.00000000E+00
  0.00000000E+00  0.00000000E+00  0.00000000E+00
  0.00000000E+00  0.00000000E+00  0.00000000E+00
  0.00000000E+00  0.00000000E+00  0.00000000E+00
  0.00000000E+00  0.00000000E+00  0.00000000E+00
  0.00000000E+00  0.00000000E+00  0.00000000E+00
  0.00000000E+00  0.00000000E+00  0.00000000E+00
  0.00000000E+00  0.00000000E+00  0.00000000E+00
  0.00000000E+00  0.00000000E+00  0.00000000E+00
  0.00000000E+00  0.00000000E+00  0.00000000E+00
  0.00000000E+00  0.00000000E+00  0.00000000E+00
  0.00000000E+00  0.00000000E+00  0.00000000E+00
  0.00000000E+00  0.00000000E+00  0.00000000E+00
  0.00000000E+00  0.00000000E+00  0.00000000E+00
  0.00000000E+00  0.00000000E+00  0.00000000E+00
  0.00000000E+00  0.00000000E+00  0.00000000E+00
  0.00000000E+00  0.00000000E+00  0.00000000E+00
  0.00000000E+00  0.00000000E+00  0.00000000E+00
  0.00000000E+00  0.00000000E+00  0.00000000E+00
  0.00000000E+00  0.00000000E+00  0.00000000E+00
  0.00000000E+00  0.00000000E+00  0.00000000E+00
  0.00000000E+00  0.00000000E+00  0.00000000E+00
  0.00000000E+00  0.00000000E+00  0.00000000E+00
  0.00000000E+00  0.00000000E+00  0.00000000E+00
  0.00000000E+00  0.00000000E+00  0.00000000E+00
  0.00000000E+00  0.00000000E+00  0.00000000E+00
  0.00000000E+00  0.00000000E+00  0.00000000E+00
  0.00000000E+00  0.00000000E+00  0.00000000E+00
  0.00000000E+00  0.00000000E+00  0.00000000E+00
  0.00000000E+00  0.00000000E+00  0.00000000E+00
  0.00000000E+00  0.00000000E+00  0.00000000E+00
  0.00000000E+00  0.00000000E+00  0.00000000E+00
  0.00000000E+00  0.00000000E+00  0.00000000E+00
  0.00000000E+00  0.00000000E+00  0.00000000E+00
  0.00000000E+00  0.00000000E+00  0.00000000E+00
  0.00000000E+00  0.00000000E+00  0.00000000E+00
  0.00000000E+00  0.00000000E+00  0.00000000E+00
  0.00000000E+00  0.00000000E+00  0.00000000E+00
  0.00000000E+00  0.00000000E+00  0.00000000E+00
  0.00000000E+00  0.00000000E+00  0.00000000E+00
  0.00000000E+00  0.00000000E+00  0.00000000E+00
  0.00000000E+00  0.00000000E+00  0.00000000E+00
