# Compound: Zn10W10O38. Old comment: O38
   1.00000000000000     
     4.6673658500000004    0.0000000000000000    0.0000000000000000
    -0.0503960100000000    7.5476530920000000    0.0000000000000000
     0.0000000000000000    0.0000000000000000   37.3228053220000007
   Zn   W    O 
    10    10    38
Direct
  0.3561386937782970  0.9000038735135946  0.2680485147288356
  0.4754449252131266  0.7900454853135481  0.3470450640352666
  0.4879096744670877  0.2255943324924146  0.3616816197215172
  0.4705126975310423  0.2347120288887451  0.4452588490418310
  0.4763753893417157  0.6489051672816444  0.4592844171965127
  0.4613315697582894  0.6579185261183611  0.5458231882034870
  0.4671942616689575  0.0721116645112534  0.5598487563581676
  0.4497972847329121  0.0812293608075818  0.6434259856784830
  0.4622620338868714  0.5167782080864503  0.6580625413647396
  0.5815682653217079  0.4068198197864087  0.7370590906711645
  0.9720892606088652  0.5219402051257869  0.3050392397644398
 -0.0053218673718193  0.1104249192792009  0.3023251964857498
  0.9714611827554527  0.9358559626469317  0.4096131163808769
  0.9865019619952341  0.5163536014491520  0.3943563638485293
  0.9665614702801787  0.3635954946026785  0.5094889395845504
  0.9711454888198264  0.9432281986973254  0.4956186658154490
  0.9512049971047710  0.7904700918508446  0.6107512415514698
  0.9662457763445524  0.3709677306530650  0.5954944890191222
  0.9430288264718169  0.1963987740208027  0.7027824089142493
  0.9656176985911346  0.7848834881742097  0.7000683656355660
  0.1562050884258706  0.3226715549303622  0.2819313650018206
  0.7384435279127202  0.2879760532228578  0.3190858360971625
  0.2607503867013826  0.6891565320424614  0.3036314898454004
  0.7577547380809936  0.5920700582157428  0.2704113070104757
  0.7459080358977260  0.9433137692908968  0.2891683710375221
  0.2536245272929660  0.0320192925621420  0.3336250619040467
  0.1988553876857270  0.7576202680309064  0.3863189061846621
  0.7756409455119678  0.6099346217718024  0.3467566480599076
  0.7574715798080820  0.6963071246475768  0.4186267794273972
  0.2012075250463654  0.4231708451868679  0.3564461702602547
  0.2367007118626931  0.1109272631190292  0.4054771803832287
  0.7321846122260355  0.9838463503016860  0.3724453877603756
  0.7220694161417459  0.3418879004088676  0.4002626811562948
  0.2325359755559467  0.4698844277615440  0.4305025827689928
  0.1866344750089814  0.1852417949557619  0.4853719853817710
  0.7533332867655591  0.0295769930599007  0.4480578882123192
  0.7510724841910182  0.1215818983442417  0.5197356200182287
  0.1885524074079644  0.8506748128402104  0.4567035978788113
  0.2278354207925613  0.5396503249920306  0.5054635462486353
  0.7135667045222990  0.4123037072594237  0.4744510925519337
  0.7098715384074387  0.7671733684079678  0.4996440591513636
  0.2241402545777067  0.8945199860405728  0.5306565128480658
  0.1802353792919159  0.6105165686524198  0.5864808259726022
  0.7491545516920407  0.4561488804597928  0.5484040075211875
  0.7388515714142778  0.5492034252690973  0.6187886992153363
  0.1843736723344393  0.2772467002400959  0.5570497171876800
  0.2156375429582593  0.9649357929911304  0.6048449242437037
  0.7051709836440530  0.8369392655384601  0.5746050226310068
  0.7010062472373116  0.1958964302809695  0.5996304250167714
  0.2055223469739651  0.3229773429983115  0.6326622176396236
  0.1992634311872782  0.0188476400771459  0.6860217693028368
  0.7364994340536396  0.8836528481131288  0.6486614351397441
  0.7815018707741302  0.9841521383696346  0.7231762403981787
  0.1620660136880313  0.6968890715282013  0.6583509573400912
  0.1917989232022719  0.3635099241091023  0.7159392343624774
  0.6840824318070332  0.2748044007378544  0.6714825434959532
  0.6769565724986245  0.6176671613575370  0.7014761155545977
  0.1799522210190112  0.7147536350842609  0.7346962983895228
 
  0.00000000E+00  0.00000000E+00  0.00000000E+00
  0.00000000E+00  0.00000000E+00  0.00000000E+00
  0.00000000E+00  0.00000000E+00  0.00000000E+00
  0.00000000E+00  0.00000000E+00  0.00000000E+00
  0.00000000E+00  0.00000000E+00  0.00000000E+00
  0.00000000E+00  0.00000000E+00  0.00000000E+00
  0.00000000E+00  0.00000000E+00  0.00000000E+00
  0.00000000E+00  0.00000000E+00  0.00000000E+00
  0.00000000E+00  0.00000000E+00  0.00000000E+00
  0.00000000E+00  0.00000000E+00  0.00000000E+00
  0.00000000E+00  0.00000000E+00  0.00000000E+00
  0.00000000E+00  0.00000000E+00  0.00000000E+00
  0.00000000E+00  0.00000000E+00  0.00000000E+00
  0.00000000E+00  0.00000000E+00  0.00000000E+00
  0.00000000E+00  0.00000000E+00  0.00000000E+00
  0.00000000E+00  0.00000000E+00  0.00000000E+00
  0.00000000E+00  0.00000000E+00  0.00000000E+00
  0.00000000E+00  0.00000000E+00  0.00000000E+00
  0.00000000E+00  0.00000000E+00  0.00000000E+00
  0.00000000E+00  0.00000000E+00  0.00000000E+00
  0.00000000E+00  0.00000000E+00  0.00000000E+00
  0.00000000E+00  0.00000000E+00  0.00000000E+00
  0.00000000E+00  0.00000000E+00  0.00000000E+00
  0.00000000E+00  0.00000000E+00  0.00000000E+00
  0.00000000E+00  0.00000000E+00  0.00000000E+00
  0.00000000E+00  0.00000000E+00  0.00000000E+00
  0.00000000E+00  0.00000000E+00  0.00000000E+00
  0.00000000E+00  0.00000000E+00  0.00000000E+00
  0.00000000E+00  0.00000000E+00  0.00000000E+00
  0.00000000E+00  0.00000000E+00  0.00000000E+00
  0.00000000E+00  0.00000000E+00  0.00000000E+00
  0.00000000E+00  0.00000000E+00  0.00000000E+00
  0.00000000E+00  0.00000000E+00  0.00000000E+00
  0.00000000E+00  0.00000000E+00  0.00000000E+00
  0.00000000E+00  0.00000000E+00  0.00000000E+00
  0.00000000E+00  0.00000000E+00  0.00000000E+00
  0.00000000E+00  0.00000000E+00  0.00000000E+00
  0.00000000E+00  0.00000000E+00  0.00000000E+00
  0.00000000E+00  0.00000000E+00  0.00000000E+00
  0.00000000E+00  0.00000000E+00  0.00000000E+00
  0.00000000E+00  0.00000000E+00  0.00000000E+00
  0.00000000E+00  0.00000000E+00  0.00000000E+00
  0.00000000E+00  0.00000000E+00  0.00000000E+00
  0.00000000E+00  0.00000000E+00  0.00000000E+00
  0.00000000E+00  0.00000000E+00  0.00000000E+00
  0.00000000E+00  0.00000000E+00  0.00000000E+00
  0.00000000E+00  0.00000000E+00  0.00000000E+00
  0.00000000E+00  0.00000000E+00  0.00000000E+00
  0.00000000E+00  0.00000000E+00  0.00000000E+00
  0.00000000E+00  0.00000000E+00  0.00000000E+00
  0.00000000E+00  0.00000000E+00  0.00000000E+00
  0.00000000E+00  0.00000000E+00  0.00000000E+00
  0.00000000E+00  0.00000000E+00  0.00000000E+00
  0.00000000E+00  0.00000000E+00  0.00000000E+00
  0.00000000E+00  0.00000000E+00  0.00000000E+00
  0.00000000E+00  0.00000000E+00  0.00000000E+00
  0.00000000E+00  0.00000000E+00  0.00000000E+00
  0.00000000E+00  0.00000000E+00  0.00000000E+00
