# Compound: Zn8W10O36. Old comment: O36W
   1.00000000000000     
     4.6673658500000004    0.0000000000000000    0.0000000000000000
    -0.0503960100000000    7.5476530920000000    0.0000000000000000
     0.0000000000000000    0.0000000000000000   37.3228053220000007
   Zn   W    O 
     8    10    36
Direct
  0.4931777085344041  0.2926055646862393  0.3767067525175567
  0.5338048086723325  0.8901977434595286  0.3476470131961454
  0.4687065245566741  0.7353404978781105  0.4733157286857106
  0.4782216462487048  0.3223838038209481  0.4591992236267858
  0.4578746307512924  0.1653733990790512  0.5718969797732184
  0.4673897525433249  0.7524167050218887  0.5577804747142866
  0.4022914684276664  0.5975594593404688  0.6834491902038583
  0.4429185684655931  0.1951516382137597  0.6543894508824405
  0.0506111452341148  0.5692639824337221  0.3256596769357697
  0.9817215817662422  0.1832263553973375  0.3145418113647090
  0.9927735464739381  0.0219800102824375  0.4218320490392056
  0.9706511476025771  0.6121781200488517  0.4090920093777763
  0.9707437178407391  0.4531249210929691  0.5232746814449578
  0.9653525591592581  0.0346322818070300  0.5078215219550393
  0.9654451293974201  0.8755790828511475  0.6220041940222212
  0.9433227306260609  0.4657771926175617  0.6092641543607916
  0.9543746953337567  0.3045308475026612  0.7165543920352945
  0.8854851317658824  0.9184932204662771  0.7054365264642345
  0.0860749884501822  0.3969388464989383  0.2878607896581783
  0.7520367095271997  0.3579081488404675  0.3363276198046528
  0.2867054891293701  0.7450233139471191  0.3141099151405931
  0.7567418177406905  0.0057186967610010  0.3017822357068855
  0.2079214098358772  0.8477333660007379  0.3989567433428367
  0.7999451933097114  0.6923986188541920  0.3604338298899983
  0.7565359541592176  0.7850432686423897  0.4331410658299034
  0.2166384635434992  0.5047241831305344  0.3710529040756437
  0.2458378231817786  0.2043337361580941  0.4183474945949822
  0.7460346710119110  0.0638979926818101  0.3849588111504687
  0.7250362550743380  0.4292802642859068  0.4140671502389104
  0.2800413236664867  0.1152542029544152  0.3418704920557886
  0.1891381124827851  0.2770947561668075  0.4987655167317238
  0.7636474138923071  0.1189775762240167  0.4606556229962470
  0.7469581645172125  0.2106624467331915  0.5323306866682800
  0.1929423248188328  0.9402798851572560  0.4694326830066667
  0.2261325361321516  0.6318071386889941  0.5184291291544991
  0.7138113016531490  0.5014095445297142  0.4883189456304522
  0.7099637408678454  0.8559500641110034  0.5126670742455051
  0.2345716395599494  0.5608827585673772  0.4431201247732374
  0.1795603229407813  0.7027139342576095  0.5979551375701012
  0.7431539521811649  0.5474773177427432  0.5616635203933311
  0.7281748672641217  0.6400238368992613  0.6321394600571600
  0.1724488632076915  0.3687796266759827  0.5704405804037508
  0.2110600220256605  0.0584769385140906  0.6170290531610870
  0.7015246374400474  0.9268744443326220  0.5879760786267667
  0.6902584539182200  0.2834234666419035  0.6127487088050220
  0.2222849754468499  0.9863476583702850  0.5427772577695529
  0.1840595674727979  0.1298490540595313  0.6947685835953443
  0.7194578134564980  0.9830330197694720  0.6600432993243535
  0.8500212885498153  0.0908183564010609  0.7432354137418193
  0.1361510836902855  0.7953585840458073  0.6706623735100057
  0.1793544593593086  0.4820385060390036  0.7293139676931110
  0.6560549534335123  0.3725029999455842  0.6892257113442082
  0.6493907878706272  0.7427338888528784  0.7169862882594040
  0.1900616059880861  0.4238592102181890  0.6461373922495278
 
  0.00000000E+00  0.00000000E+00  0.00000000E+00
  0.00000000E+00  0.00000000E+00  0.00000000E+00
  0.00000000E+00  0.00000000E+00  0.00000000E+00
  0.00000000E+00  0.00000000E+00  0.00000000E+00
  0.00000000E+00  0.00000000E+00  0.00000000E+00
  0.00000000E+00  0.00000000E+00  0.00000000E+00
  0.00000000E+00  0.00000000E+00  0.00000000E+00
  0.00000000E+00  0.00000000E+00  0.00000000E+00
  0.00000000E+00  0.00000000E+00  0.00000000E+00
  0.00000000E+00  0.00000000E+00  0.00000000E+00
  0.00000000E+00  0.00000000E+00  0.00000000E+00
  0.00000000E+00  0.00000000E+00  0.00000000E+00
  0.00000000E+00  0.00000000E+00  0.00000000E+00
  0.00000000E+00  0.00000000E+00  0.00000000E+00
  0.00000000E+00  0.00000000E+00  0.00000000E+00
  0.00000000E+00  0.00000000E+00  0.00000000E+00
  0.00000000E+00  0.00000000E+00  0.00000000E+00
  0.00000000E+00  0.00000000E+00  0.00000000E+00
  0.00000000E+00  0.00000000E+00  0.00000000E+00
  0.00000000E+00  0.00000000E+00  0.00000000E+00
  0.00000000E+00  0.00000000E+00  0.00000000E+00
  0.00000000E+00  0.00000000E+00  0.00000000E+00
  0.00000000E+00  0.00000000E+00  0.00000000E+00
  0.00000000E+00  0.00000000E+00  0.00000000E+00
  0.00000000E+00  0.00000000E+00  0.00000000E+00
  0.00000000E+00  0.00000000E+00  0.00000000E+00
  0.00000000E+00  0.00000000E+00  0.00000000E+00
  0.00000000E+00  0.00000000E+00  0.00000000E+00
  0.00000000E+00  0.00000000E+00  0.00000000E+00
  0.00000000E+00  0.00000000E+00  0.00000000E+00
  0.00000000E+00  0.00000000E+00  0.00000000E+00
  0.00000000E+00  0.00000000E+00  0.00000000E+00
  0.00000000E+00  0.00000000E+00  0.00000000E+00
  0.00000000E+00  0.00000000E+00  0.00000000E+00
  0.00000000E+00  0.00000000E+00  0.00000000E+00
  0.00000000E+00  0.00000000E+00  0.00000000E+00
  0.00000000E+00  0.00000000E+00  0.00000000E+00
  0.00000000E+00  0.00000000E+00  0.00000000E+00
  0.00000000E+00  0.00000000E+00  0.00000000E+00
  0.00000000E+00  0.00000000E+00  0.00000000E+00
  0.00000000E+00  0.00000000E+00  0.00000000E+00
  0.00000000E+00  0.00000000E+00  0.00000000E+00
  0.00000000E+00  0.00000000E+00  0.00000000E+00
  0.00000000E+00  0.00000000E+00  0.00000000E+00
  0.00000000E+00  0.00000000E+00  0.00000000E+00
  0.00000000E+00  0.00000000E+00  0.00000000E+00
  0.00000000E+00  0.00000000E+00  0.00000000E+00
  0.00000000E+00  0.00000000E+00  0.00000000E+00
  0.00000000E+00  0.00000000E+00  0.00000000E+00
  0.00000000E+00  0.00000000E+00  0.00000000E+00
  0.00000000E+00  0.00000000E+00  0.00000000E+00
  0.00000000E+00  0.00000000E+00  0.00000000E+00
  0.00000000E+00  0.00000000E+00  0.00000000E+00
  0.00000000E+00  0.00000000E+00  0.00000000E+00
