# Compound: Zn10W8O38. Old comment: O38W
   1.00000000000000     
     4.6673658500000004    0.0000000000000000    0.0000000000000000
    -0.0503960100000000    7.5476530920000000    0.0000000000000000
     0.0000000000000000    0.0000000000000000   37.3228053220000007
   Zn   W    O 
    10     8    38
Direct
  0.4761101584616826  0.9119088583166614  0.2756092161507727
  0.4946003912657555  0.5133509983206502  0.2654443175351860
  0.4760259774794194  0.3480032341664624  0.3739623793804724
  0.4723479490607348  0.9398763045431158  0.3603354211879078
  0.4711818099435660  0.7812612737727044  0.4760214440446149
  0.4707955646564344  0.3655256998272899  0.4601823647553871
  0.4696294254392638  0.2069106689568829  0.5758683876120945
  0.4659513970205792  0.7987837394335385  0.5622414294195232
  0.4473769833342451  0.6334359751793562  0.6707594912648159
  0.4658672160383231  0.2348781152833398  0.6605945926492288
  0.9817840344887498  0.6345462312055210  0.3264229034440956
  0.9717501731463073  0.2121472011617109  0.3071823637873313
  0.9717098182528469  0.0692474846711219  0.4250078852330928
  0.9757544912473114  0.6489768274561020  0.4114831798116316
  0.9662228832526943  0.4978101461438987  0.5247206289883634
  0.9702675563471536  0.0775394889288793  0.5111959235669098
  0.9702272014536931  0.9346397724382900  0.6290214450126703
  0.9601933400112559  0.5122407423944801  0.6097809053559060
  0.1971872686040254  0.4559325036608318  0.3003279025329894
  0.7451643306265311  0.3210458405526462  0.2664599820255626
  0.7418550446026762  0.0705443455446179  0.2451336102804077
  0.1778213676148490  0.1020736522772770  0.2720107909933530
  0.2577728079276783  0.8058700826209091  0.3206035821581811
  0.7562136947437819  0.6996543430659716  0.2897721394856774
  0.7029596155155207  0.0429084117595329  0.3166985449411013
  0.3309472512344023  0.7166406626668587  0.2445521998556413
  0.1926726072508912  0.8922929641052816  0.4007534828619237
  0.7660989179086329  0.7366340694500380  0.3642066272007316
  0.7623576109743802  0.4040259537148886  0.3350643712555354
  0.2004066442829884  0.5552795324916827  0.3730172229438969
  0.2305247348325568  0.2463632935312607  0.4204471977199299
  0.7133931594079369  0.1163943887451180  0.3902970001163048
  0.7167632148509114  0.4718907604133802  0.4150970906425799
  0.2201284028999713  0.1784721407961206  0.3444437658456233
  0.1848454590123961  0.3198875285126146  0.5006347915544412
  0.7539425103657869  0.1622738075302028  0.4641322043324730
  0.7571319154876028  0.8268994450873867  0.4355690172455610
  0.1880348642342133  0.9845131660697982  0.4720716044675218
  0.2252141596490872  0.6748962130866185  0.5211067181574227
  0.7113450623323683  0.5445128242215178  0.4896546589783778
  0.7114526397674431  0.9004236799687386  0.5157566110800719
  0.2306323121676371  0.6022741493784762  0.4465491498216241
  0.1796197636256205  0.7427610198851125  0.6011394375444667
  0.7415707302170169  0.5915074411083184  0.5631865858561048
  0.7493047672491141  0.2544940094947122  0.5354503259380780
  0.1758784565913657  0.4101529041499631  0.5719971815992700
  0.2390177590844789  0.1038785617404664  0.6195052638588934
  0.7218489716000273  0.9683148328038809  0.5917600429543788
  0.6842045665723275  0.3409168908790904  0.6156002266418209
  0.2285842151920638  0.0303925848548832  0.5459068086836976
  0.2001223298973218  0.0762426280553831  0.6910701985195867
  0.7641560069851444  0.0447133213227242  0.6641930178066495
  0.7447901059959675  0.6908544699391698  0.6358759062670057
  0.1968130439734697  0.8257411330473479  0.6697438267744394
  0.6110301233655984  0.4301463109331425  0.6916516089443533
  0.1857636797562238  0.4471326305340295  0.6464316693143175
 
  0.00000000E+00  0.00000000E+00  0.00000000E+00
  0.00000000E+00  0.00000000E+00  0.00000000E+00
  0.00000000E+00  0.00000000E+00  0.00000000E+00
  0.00000000E+00  0.00000000E+00  0.00000000E+00
  0.00000000E+00  0.00000000E+00  0.00000000E+00
  0.00000000E+00  0.00000000E+00  0.00000000E+00
  0.00000000E+00  0.00000000E+00  0.00000000E+00
  0.00000000E+00  0.00000000E+00  0.00000000E+00
  0.00000000E+00  0.00000000E+00  0.00000000E+00
  0.00000000E+00  0.00000000E+00  0.00000000E+00
  0.00000000E+00  0.00000000E+00  0.00000000E+00
  0.00000000E+00  0.00000000E+00  0.00000000E+00
  0.00000000E+00  0.00000000E+00  0.00000000E+00
  0.00000000E+00  0.00000000E+00  0.00000000E+00
  0.00000000E+00  0.00000000E+00  0.00000000E+00
  0.00000000E+00  0.00000000E+00  0.00000000E+00
  0.00000000E+00  0.00000000E+00  0.00000000E+00
  0.00000000E+00  0.00000000E+00  0.00000000E+00
  0.00000000E+00  0.00000000E+00  0.00000000E+00
  0.00000000E+00  0.00000000E+00  0.00000000E+00
  0.00000000E+00  0.00000000E+00  0.00000000E+00
  0.00000000E+00  0.00000000E+00  0.00000000E+00
  0.00000000E+00  0.00000000E+00  0.00000000E+00
  0.00000000E+00  0.00000000E+00  0.00000000E+00
  0.00000000E+00  0.00000000E+00  0.00000000E+00
  0.00000000E+00  0.00000000E+00  0.00000000E+00
  0.00000000E+00  0.00000000E+00  0.00000000E+00
  0.00000000E+00  0.00000000E+00  0.00000000E+00
  0.00000000E+00  0.00000000E+00  0.00000000E+00
  0.00000000E+00  0.00000000E+00  0.00000000E+00
  0.00000000E+00  0.00000000E+00  0.00000000E+00
  0.00000000E+00  0.00000000E+00  0.00000000E+00
  0.00000000E+00  0.00000000E+00  0.00000000E+00
  0.00000000E+00  0.00000000E+00  0.00000000E+00
  0.00000000E+00  0.00000000E+00  0.00000000E+00
  0.00000000E+00  0.00000000E+00  0.00000000E+00
  0.00000000E+00  0.00000000E+00  0.00000000E+00
  0.00000000E+00  0.00000000E+00  0.00000000E+00
  0.00000000E+00  0.00000000E+00  0.00000000E+00
  0.00000000E+00  0.00000000E+00  0.00000000E+00
  0.00000000E+00  0.00000000E+00  0.00000000E+00
  0.00000000E+00  0.00000000E+00  0.00000000E+00
  0.00000000E+00  0.00000000E+00  0.00000000E+00
  0.00000000E+00  0.00000000E+00  0.00000000E+00
  0.00000000E+00  0.00000000E+00  0.00000000E+00
  0.00000000E+00  0.00000000E+00  0.00000000E+00
  0.00000000E+00  0.00000000E+00  0.00000000E+00
  0.00000000E+00  0.00000000E+00  0.00000000E+00
  0.00000000E+00  0.00000000E+00  0.00000000E+00
  0.00000000E+00  0.00000000E+00  0.00000000E+00
  0.00000000E+00  0.00000000E+00  0.00000000E+00
  0.00000000E+00  0.00000000E+00  0.00000000E+00
  0.00000000E+00  0.00000000E+00  0.00000000E+00
  0.00000000E+00  0.00000000E+00  0.00000000E+00
  0.00000000E+00  0.00000000E+00  0.00000000E+00
  0.00000000E+00  0.00000000E+00  0.00000000E+00
