Generated by VASPKIT code
 1.000000
    9.3347317000000007    0.0000000000000000    0.0000000000000000
   -0.1007920200000000   15.0953061840000000    0.0000000000000000
    0.0000000000000000    0.0000000000000000   37.3228053220000007
   Zn   W    O 
    40    40   160
Direct
    0.2362828515603272    0.3900162240846472    0.2671389238834965    Zn001
    0.2362828515603272    0.8900162240846472    0.2671389238834965    Zn002
    0.7362828515603272    0.3900162240846472    0.2671389238834965    Zn003
    0.7362828515603272    0.8900162240846472    0.2671389238834965    Zn004
    0.2382660517813117    0.3902719233197439    0.3454268653904776    Zn005
    0.2382660517813117    0.8902719233197439    0.3454268653904776    Zn006
    0.7382660517813117    0.3902719233197439    0.3454268653904776    Zn007
    0.7382660517813117    0.8902719233197439    0.3454268653904776    Zn008
    0.2490258518208257    0.1044547810063272    0.3564640684270541    Zn009
    0.2490258518208257    0.6044547810063272    0.3564640684270541    Zn010
    0.7490258518208257    0.1044547810063272    0.3564640684270541    Zn011
    0.7490258518208257    0.6044547810063272    0.3564640684270541    Zn012
    0.2352258871658888    0.1054552973149482    0.4422154097713207    Zn013
    0.2352258871658888    0.6054552973149482    0.4422154097713207    Zn014
    0.7352258871658888    0.1054552973149482    0.4422154097713207    Zn015
    0.7352258871658888    0.6054552973149482    0.4422154097713207    Zn016
    0.2374837638788175    0.3126956761380946    0.4570319786318905    Zn017
    0.2374837638788175    0.8126956761380946    0.4570319786318905    Zn018
    0.7374837638788175    0.3126956761380946    0.4570319786318905    Zn019
    0.7374837638788175    0.8126956761380946    0.4570319786318905    Zn020
    0.2315279913711802    0.3173653123619040    0.5429680213681094    Zn021
    0.2315279913711802    0.8173653123619040    0.5429680213681094    Zn022
    0.7315279913711802    0.3173653123619040    0.5429680213681094    Zn023
    0.7315279913711802    0.8173653123619040    0.5429680213681094    Zn024
    0.2337858681341098    0.0246056911850540    0.5577845902286793    Zn025
    0.2337858681341098    0.5246056911850540    0.5577845902286793    Zn026
    0.7337858681341098    0.0246056911850540    0.5577845902286793    Zn027
    0.7337858681341098    0.5246056911850540    0.5577845902286793    Zn028
    0.2199859034791729    0.0256062074936749    0.6435359315729456    Zn029
    0.2199859034791729    0.5256062074936749    0.6435359315729456    Zn030
    0.7199859034791729    0.0256062074936749    0.6435359315729456    Zn031
    0.7199859034791729    0.5256062074936749    0.6435359315729456    Zn032
    0.2307457035186871    0.2397890651802549    0.6545731346095229    Zn033
    0.2307457035186871    0.7397890651802549    0.6545731346095229    Zn034
    0.7307457035186871    0.2397890651802549    0.6545731346095229    Zn035
    0.7307457035186871    0.7397890651802549    0.6545731346095229    Zn036
    0.2327289036896705    0.2400447643653507    0.7328610761165034    Zn037
    0.2327289036896705    0.7400447643653507    0.7328610761165034    Zn038
    0.7327289036896705    0.2400447643653507    0.7328610761165034    Zn039
    0.7327289036896705    0.7400447643653507    0.7328610761165034    Zn040
    0.4765548872215237    0.2455419299903788    0.3037465845000872     W001
    0.4765548872215237    0.7455419299903788    0.3037465845000872     W002
    0.9765548872215237    0.2455419299903788    0.3037465845000872     W003
    0.9765548872215237    0.7455419299903788    0.3037465845000872     W004
    0.0168416057299628    0.0395480367003028    0.2923606378060370     W005
    0.0168416057299628    0.5395480367003028    0.2923606378060370     W006
    0.5168416057299630    0.0395480367003028    0.2923606378060370     W007
    0.5168416057299630    0.5395480367003028    0.2923606378060370     W008
    0.4844047841645881    0.4573683452134993    0.4073571059640507     W009
    0.4844047841645881    0.9573683452134993    0.4073571059640507     W010
    0.9844047841645881    0.4573683452134993    0.4073571059640507     W011
    0.9844047841645881    0.9573683452134993    0.4073571059640507     W012
    0.4911788709618872    0.2468799703288970    0.3919569153077302     W013
    0.4911788709618872    0.7468799703288970    0.3919569153077302     W014
    0.9911788709618872    0.2468799703288970    0.3919569153077302     W015
    0.9911788709618872    0.7468799703288970    0.3919569153077302     W016
    0.4836594190432735    0.1700353040855015    0.5067732586462753     W017
    0.4836594190432735    0.6700353040855015    0.5067732586462753     W018
    0.9836594190432735    0.1700353040855015    0.5067732586462753     W019
    0.9836594190432735    0.6700353040855015    0.5067732586462753     W020
    0.4853523362567251    0.4600256843644965    0.4932267413537241     W021
    0.4853523362567251    0.9600256843644965    0.4932267413537241     W022
    0.9853523362567251    0.4600256843644965    0.4932267413537241     W023
    0.9853523362567251    0.9600256843644965    0.4932267413537241     W024
    0.4778328843381114    0.3831810181211044    0.6080430846922694     W025
    0.4778328843381114    0.8831810181211044    0.6080430846922694     W026
    0.9778328843381114    0.3831810181211044    0.6080430846922694     W027
    0.9778328843381114    0.8831810181211044    0.6080430846922694     W028
    0.4846069711354105    0.1726926432365019    0.5926428940359505     W029
    0.4846069711354105    0.6726926432365019    0.5926428940359505     W030
    0.9846069711354105    0.1726926432365019    0.5926428940359505     W031
    0.9846069711354105    0.6726926432365019    0.5926428940359505     W032
    0.4521701495200381    0.0905129517496949    0.7076393621939635     W033
    0.4521701495200381    0.5905129517496949    0.7076393621939635     W034
    0.9521701495200381    0.0905129517496949    0.7076393621939635     W035
    0.9521701495200381    0.5905129517496949    0.7076393621939635     W036
    0.4924568680784749    0.3845190584596225    0.6962534154999134     W037
    0.4924568680784749    0.8845190584596225    0.6962534154999134     W038
    0.9924568680784749    0.3845190584596225    0.6962534154999134     W039
    0.9924568680784749    0.8845190584596225    0.6962534154999134     W040
    0.0803695975396741    0.1570544152899536    0.2774135011391893     O001
    0.0803695975396741    0.6570544152899536    0.2774135011391893     O002
    0.5803695975396741    0.1570544152899536    0.2774135011391893     O003
    0.5803695975396741    0.6570544152899536    0.2774135011391893     O004
    0.3772966114703213    0.2907496342958977    0.3443596789380399     O005
    0.3772966114703213    0.7907496342958977    0.3443596789380399     O006
    0.8772966114703213    0.2907496342958977    0.3443596789380399     O007
    0.8772966114703213    0.7907496342958977    0.3443596789380399     O008
    0.3787902791938087    0.1289341309729167    0.3147653057867260     O009
    0.3787902791938087    0.6289341309729167    0.3147653057867260     O010
    0.8787902791938087    0.1289341309729167    0.3147653057867260     O011
    0.8787902791938087    0.6289341309729167    0.3147653057867260     O012
    0.1083592570096038    0.4858465922814849    0.2551444078441816     O013
    0.1083592570096038    0.9858465922814849    0.2551444078441816     O014
    0.6083592570096038    0.4858465922814849    0.2551444078441816     O015
    0.6083592570096038    0.9858465922814849    0.2551444078441816     O016
    0.1207297593071659    0.3297878445305147    0.3043697017139759     O017
    0.1207297593071659    0.8297878445305147    0.3043697017139759     O018
    0.6207297593071659    0.3297878445305147    0.3043697017139759     O019
    0.6207297593071659    0.8297878445305147    0.3043697017139759     O020
    0.3683944344828630    0.2897660863438183    0.2686112672234672     O021
    0.3683944344828630    0.7897660863438183    0.2686112672234672     O022
    0.8683944344828630    0.2897660863438183    0.2686112672234672     O023
    0.8683944344828630    0.7897660863438183    0.2686112672234672     O024
    0.3683710473792770    0.4623788354807575    0.2952454544299217     O025
    0.3683710473792770    0.9623788354807575    0.2952454544299217     O026
    0.8683710473792770    0.4623788354807575    0.2952454544299217     O027
    0.8683710473792770    0.9623788354807575    0.2952454544299217     O028
    0.1256041972025825    0.0120281375848477    0.3298154230008493     O029
    0.1256041972025825    0.5120281375848477    0.3298154230008493     O030
    0.6256041972025825    0.0120281375848477    0.3298154230008493     O031
    0.6256041972025825    0.5120281375848477    0.3298154230008493     O032
    0.0940804859929923    0.3677170887896736    0.3829280177508214     O033
    0.0940804859929923    0.8677170887896736    0.3829280177508214     O034
    0.5940804859929922    0.3677170887896736    0.3829280177508214     O035
    0.5940804859929922    0.8677170887896736    0.3829280177508214     O036
    0.3753924151940718    0.0029985748681750    0.4461695341907397     O037
    0.3753924151940718    0.5029985748681750    0.4461695341907397     O038
    0.8753924151940718    0.0029985748681750    0.4461695341907397     O039
    0.8753924151940718    0.5029985748681750    0.4461695341907397     O040
    0.3769244670420263    0.3359182452015786    0.4163280652962322     O041
    0.3769244670420263    0.8359182452015786    0.4163280652962322     O042
    0.8769244670420263    0.3359182452015786    0.4163280652962322     O043
    0.8769244670420263    0.8359182452015786    0.4163280652962322     O044
    0.0952409883120227    0.2008487591203920    0.3530760338113553     O045
    0.0952409883120227    0.7008487591203920    0.3530760338113553     O046
    0.5952409883120227    0.2008487591203920    0.3530760338113553     O047
    0.5952409883120227    0.7008487591203920    0.3530760338113553     O048
    0.1155366158738753    0.0446976553295546    0.4030182332776664     O049
    0.1155366158738753    0.5446976553295546    0.4030182332776664     O050
    0.6155366158738753    0.0446976553295546    0.4030182332776664     O051
    0.6155366158738753    0.5446976553295546    0.4030182332776664     O052
    0.3597410380700529    0.4820881935096080    0.3716624577935077     O053
    0.3597410380700529    0.9820881935096080    0.3716624577935077     O054
    0.8597410380700529    0.4820881935096080    0.3716624577935077     O055
    0.8597410380700529    0.9820881935096080    0.3716624577935077     O056
    0.3582202408882894    0.1595027380733884    0.3971950326710056     O057
    0.3582202408882894    0.6595027380733884    0.3971950326710056     O058
    0.8582202408882894    0.1595027380733884    0.3971950326710056     O059
    0.8582202408882894    0.6595027380733884    0.3971950326710056     O060
    0.1150368606680856    0.2231874327702912    0.4275980974611602     O061
    0.1150368606680856    0.7231874327702912    0.4275980974611602     O062
    0.6150368606680856    0.2231874327702912    0.4275980974611602     O063
    0.6150368606680856    0.7231874327702912    0.4275980974611602     O064
    0.0931017772502534    0.0810253112826619    0.4826086467938271     O065
    0.0931017772502534    0.5810253112826619    0.4826086467938271     O066
    0.5931017772502534    0.0810253112826619    0.4826086467938271     O067
    0.5931017772502534    0.5810253112826619    0.4826086467938271     O068
    0.3758266403581585    0.2166285099521024    0.5459309079801660     O069
    0.3758266403581585    0.7166285099521024    0.5459309079801660     O070
    0.8758266403581585    0.2166285099521024    0.5459309079801660     O071
    0.8758266403581585    0.7166285099521024    0.5459309079801660     O072
    0.3759099780497455    0.0490356771673394    0.5173913532061732     O073
    0.3759099780497455    0.5490356771673395    0.5173913532061732     O074
    0.8759099780497455    0.0490356771673394    0.5173913532061732     O075
    0.8759099780497455    0.5490356771673395    0.5173913532061732     O076
    0.0931851149418402    0.4134324784978954    0.4540690920198340     O077
    0.0931851149418402    0.9134324784978954    0.4540690920198340     O078
    0.5931851149418402    0.4134324784978954    0.4540690920198340     O079
    0.5931851149418402    0.9134324784978954    0.4540690920198340     O080
    0.1138052917082633    0.2584148134534772    0.5024816202948417     O081
    0.1138052917082633    0.7584148134534772    0.5024816202948417     O082
    0.6138052917082633    0.2584148134534772    0.5024816202948417     O083
    0.6138052917082633    0.7584148134534772    0.5024816202948417     O084
    0.3561403133978189    0.1940491076080770    0.4718565269211756     O085
    0.3561403133978189    0.6940491076080770    0.4718565269211756     O086
    0.8561403133978189    0.1940491076080770    0.4718565269211756     O087
    0.8561403133978189    0.6940491076080770    0.4718565269211756     O088
    0.3552064635917351    0.3716461750465214    0.4975183797051582     O089
    0.3552064635917351    0.8716461750465214    0.4975183797051582     O090
    0.8552064635917351    0.3716461750465214    0.4975183797051582     O091
    0.8552064635917351    0.8716461750465214    0.4975183797051582     O092
    0.1128714418521787    0.4360118808419244    0.5281434730788249     O093
    0.1128714418521787    0.9360118808419244    0.5281434730788249     O094
    0.6128714418521787    0.4360118808419244    0.5281434730788249     O095
    0.6128714418521787    0.9360118808419244    0.5281434730788249     O096
    0.0920872882079753    0.2941427432484226    0.5836719347037675     O097
    0.0920872882079753    0.7941427432484226    0.5836719347037675     O098
    0.5920872882079753    0.2941427432484226    0.5836719347037675     O099
    0.5920872882079753    0.7941427432484226    0.5836719347037675     O100
    0.3737707669879760    0.4292122293296088    0.6469239661886447     O101
    0.3737707669879760    0.9292122293296088    0.6469239661886447     O102
    0.8737707669879760    0.4292122293296088    0.6469239661886447     O103
    0.8737707669879760    0.9292122293296088    0.6469239661886447     O104
    0.3749312692570053    0.2623438996603277    0.6170719822491780     O105
    0.3749312692570053    0.7623438996603277    0.6170719822491780     O106
    0.8749312692570053    0.2623438996603277    0.6170719822491780     O107
    0.8749312692570053    0.7623438996603277    0.6170719822491780     O108
    0.0936193401059267    0.1270624135818262    0.5538304658092599     O109
    0.0936193401059267    0.6270624135818262    0.5538304658092599     O110
    0.5936193401059267    0.1270624135818262    0.5538304658092599     O111
    0.5936193401059267    0.6270624135818262    0.5538304658092599     O112
    0.1107915144117092    0.4705582504266104    0.6028049673289944     O113
    0.1107915144117092    0.9705582504266104    0.6028049673289944     O114
    0.6107915144117093    0.4705582504266104    0.6028049673289944     O115
    0.6107915144117093    0.9705582504266104    0.6028049673289944     O116
    0.3539748946319129    0.4068735556797100    0.5724019025388399     O117
    0.3539748946319129    0.9068735556797100    0.5724019025388399     O118
    0.8539748946319129    0.4068735556797100    0.5724019025388399     O119
    0.8539748946319129    0.9068735556797100    0.5724019025388399     O120
    0.3534751393761223    0.0853633331704441    0.5969817667223336     O121
    0.3534751393761223    0.5853633331704440    0.5969817667223336     O122
    0.8534751393761223    0.0853633331704441    0.5969817667223336     O123
    0.8534751393761223    0.5853633331704440    0.5969817667223336     O124
    0.1092707172299459    0.1479727949403933    0.6283375422064933     O125
    0.1092707172299459    0.6479727949403933    0.6283375422064933     O126
    0.6092707172299459    0.1479727949403933    0.6283375422064933     O127
    0.6092707172299459    0.6479727949403933    0.6283375422064933     O128
    0.0902214761061900    0.0011268574770809    0.6852346942132738     O129
    0.0902214761061900    0.5011268574770809    0.6852346942132738     O130
    0.5902214761061900    0.0011268574770809    0.6852346942132738     O131
    0.5902214761061900    0.5011268574770809    0.6852346942132738     O132
    0.3606524982903948    0.1442143961685129    0.7448555921558183     O133
    0.3606524982903948    0.6442143961685129    0.7448555921558183     O134
    0.8606524982903948    0.1442143961685129    0.7448555921558183     O135
    0.8606524982903948    0.6442143961685129    0.7448555921558183     O136
    0.3886421577603247    0.4730065731600477    0.7225864988608104     O137
    0.3886421577603247    0.9730065731600477    0.7225864988608104     O138
    0.8886421577603247    0.4730065731600477    0.7225864988608104     O139
    0.8886421577603247    0.9730065731600477    0.7225864988608104     O140
    0.0917151438296774    0.3393113541541035    0.6556403210619596     O141
    0.0917151438296774    0.8393113541541035    0.6556403210619596     O142
    0.5917151438296774    0.3393113541541035    0.6556403210619596     O143
    0.5917151438296774    0.8393113541541035    0.6556403210619596     O144
    0.1006407079207214    0.1676821530192447    0.7047545455700780     O145
    0.1006407079207214    0.6676821530192447    0.7047545455700780     O146
    0.6006407079207214    0.1676821530192447    0.7047545455700780     O147
    0.6006407079207214    0.6676821530192447    0.7047545455700780     O148
    0.3434075580474188    0.1180328508651536    0.6701845769991510     O149
    0.3434075580474188    0.6180328508651536    0.6701845769991510     O150
    0.8434075580474188    0.1180328508651536    0.6701845769991510     O151
    0.8434075580474188    0.6180328508651536    0.6701845769991510     O152
    0.3482819959928329    0.3002731439694839    0.6956302982860243     O153
    0.3482819959928329    0.8002731439694839    0.6956302982860243     O154
    0.8482819959928329    0.3002731439694839    0.6956302982860243     O155
    0.8482819959928329    0.8002731439694839    0.6956302982860243     O156
    0.1006173208171353    0.3402949021061794    0.7313887327765330     O157
    0.1006173208171353    0.8402949021061794    0.7313887327765330     O158
    0.6006173208171353    0.3402949021061794    0.7313887327765330     O159
    0.6006173208171353    0.8402949021061794    0.7313887327765330     O160
