Generated by VASPKIT code
 1.000000
    9.3347317000000007    0.0000000000000000    0.0000000000000000
   -0.1007920200000000   15.0953061840000000    0.0000000000000000
    0.0000000000000000    0.0000000000000000   37.3228053220000007
   Zn   W    O 
    32    40   152
Direct
    0.2411374703127344    0.1293987740074458    0.3729395804185125    Zn001
    0.2411374703127344    0.6293987740074458    0.3729395804185125    Zn002
    0.7411374703127344    0.1293987740074458    0.3729395804185125    Zn003
    0.7411374703127344    0.6293987740074458    0.3729395804185125    Zn004
    0.2348900055048662    0.4203627588815622    0.3565716762752014    Zn005
    0.2348900055048662    0.9203627588815622    0.3565716762752014    Zn006
    0.7348900055048662    0.4203627588815622    0.3565716762752014    Zn007
    0.7348900055048662    0.9203627588815622    0.3565716762752014    Zn008
    0.2373777406236439    0.3434488749704774    0.4697987683458270    Zn009
    0.2373777406236439    0.8434488749704774    0.4697987683458270    Zn010
    0.7373777406236439    0.3434488749704774    0.4697987683458270    Zn011
    0.7373777406236439    0.8434488749704774    0.4697987683458270    Zn012
    0.2351380434370610    0.1365069723623851    0.4558496358216149    Zn013
    0.2351380434370610    0.6365069723623851    0.4558496358216149    Zn014
    0.7351380434370610    0.1365069723623851    0.4558496358216149    Zn015
    0.7351380434370610    0.6365069723623851    0.4558496358216149    Zn016
    0.2330683708129372    0.0558473668876136    0.5701389623783860    Zn017
    0.2330683708129372    0.5558473668876136    0.5701389623783860    Zn018
    0.7330683708129372    0.0558473668876136    0.5701389623783860    Zn019
    0.7330683708129372    0.5558473668876136    0.5701389623783860    Zn020
    0.2308286736263578    0.3489054642795213    0.5561898298541748    Zn021
    0.2308286736263578    0.8489054642795213    0.5561898298541748    Zn022
    0.7308286736263578    0.3489054642795213    0.5561898298541748    Zn023
    0.7308286736263578    0.8489054642795213    0.5561898298541748    Zn024
    0.2333164087451356    0.2719915803684365    0.6694169219247925    Zn025
    0.2333164087451356    0.7719915803684365    0.6694169219247925    Zn026
    0.7333164087451356    0.2719915803684365    0.6694169219247925    Zn027
    0.7333164087451356    0.7719915803684365    0.6694169219247925    Zn028
    0.2270689439372673    0.0629555652425529    0.6530490177814897    Zn029
    0.2270689439372673    0.5629555652425529    0.6530490177814897    Zn030
    0.7270689439372673    0.0629555652425529    0.6530490177814897    Zn031
    0.7270689439372673    0.5629555652425529    0.6530490177814897    Zn032
    0.4912717160702160    0.2889560805494751    0.3169925789605397     W001
    0.4912717160702160    0.7889560805494751    0.3169925789605397     W002
    0.9912717160702160    0.2889560805494751    0.3169925789605397     W003
    0.9912717160702160    0.7889560805494751    0.3169925789605397     W004
    0.0179604384840154    0.0930271141689971    0.3087754139695156     W005
    0.0179604384840154    0.5930271141689971    0.3087754139695156     W006
    0.5179604384840155    0.0930271141689971    0.3087754139695156     W007
    0.5179604384840155    0.5930271141689971    0.3087754139695156     W008
    0.4865140083417956    0.4868327858340198    0.4200354386216020     W009
    0.4865140083417956    0.9868327858340198    0.4200354386216020     W010
    0.9865140083417956    0.4868327858340198    0.4200354386216020     W011
    0.9865140083417956    0.9868327858340198    0.4200354386216020     W012
    0.4919829929141126    0.2778267357794335    0.4047963540517986     W013
    0.4919829929141126    0.7778267357794335    0.4047963540517986     W014
    0.9919829929141126    0.2778267357794335    0.4047963540517986     W015
    0.9919829929141126    0.7778267357794335    0.4047963540517986     W016
    0.4828384974382200    0.2012865262769021    0.5199408016333668     W017
    0.4828384974382200    0.7012865262769021    0.5199408016333668     W018
    0.9828384974382200    0.2012865262769021    0.5199408016333668     W019
    0.9828384974382200    0.7012865262769021    0.5199408016333668     W020
    0.4853679168117817    0.4910678129731003    0.5060477965666347     W021
    0.4853679168117817    0.9910678129731003    0.5060477965666347     W022
    0.9853679168117817    0.4910678129731003    0.5060477965666347     W023
    0.9853679168117817    0.9910678129731003    0.5060477965666347     W024
    0.4762234213358891    0.4145276034705652    0.6211922441482026     W025
    0.4762234213358891    0.9145276034705652    0.6211922441482026     W026
    0.9762234213358891    0.4145276034705652    0.6211922441482026     W027
    0.9762234213358891    0.9145276034705652    0.6211922441482026     W028
    0.4816924059082062    0.2055215534159788    0.6059531595783998     W029
    0.4816924059082062    0.7055215534159788    0.6059531595783998     W030
    0.9816924059082062    0.2055215534159788    0.6059531595783998     W031
    0.9816924059082062    0.7055215534159788    0.6059531595783998     W032
    0.4502459757659864    0.0993272250810051    0.7172131842304861     W033
    0.4502459757659864    0.5993272250810051    0.7172131842304861     W034
    0.9502459757659864    0.0993272250810051    0.7172131842304861     W035
    0.9502459757659864    0.5993272250810051    0.7172131842304861     W036
    0.4769346981797857    0.4033982587005236    0.7089960192394547     W037
    0.4769346981797857    0.9033982587005236    0.7089960192394547     W038
    0.9769346981797857    0.4033982587005236    0.7089960192394547     W039
    0.9769346981797857    0.9033982587005236    0.7089960192394547     W040
    0.0994144893977418    0.1938837690710540    0.2903499416522519     O001
    0.0994144893977418    0.6938837690710540    0.2903499416522519     O002
    0.5994144893977418    0.1938837690710540    0.2903499416522519     O003
    0.5994144893977418    0.6938837690710540    0.2903499416522519     O004
    0.3749732988051981    0.1547656774796938    0.3305462257458476     O005
    0.3749732988051981    0.6547656774796938    0.3305462257458476     O006
    0.8749732988051981    0.1547656774796938    0.3305462257458476     O007
    0.8749732988051981    0.6547656774796938    0.3305462257458476     O008
    0.1246287140440696    0.3725559566714471    0.3159823870383496     O009
    0.1246287140440696    0.8725559566714471    0.3159823870383496     O010
    0.6246287140440696    0.3725559566714471    0.3159823870383496     O011
    0.6246287140440696    0.8725559566714471    0.3159823870383496     O012
    0.3757608612608496    0.3176402757425683    0.2834756554606748     O013
    0.3757608612608496    0.8176402757425683    0.2834756554606748     O014
    0.8757608612608496    0.3176402757425683    0.2834756554606748     O015
    0.8757608612608496    0.8176402757425683    0.2834756554606748     O016
    0.4520092446829266    0.0210219928624206    0.2771355956791688     O017
    0.4520092446829266    0.5210219928624206    0.2771355956791688     O018
    0.9520092446829266    0.0210219928624206    0.2771355956791688     O019
    0.9520092446829266    0.5210219928624206    0.2771355956791688     O020
    0.1415931640065540    0.0399700753307786    0.3397093844309103     O021
    0.1415931640065540    0.5399700753307786    0.3397093844309103     O022
    0.6415931640065540    0.0399700753307786    0.3397093844309103     O023
    0.6415931640065540    0.5399700753307786    0.3397093844309103     O024
    0.1007360932959173    0.3984394117880956    0.3969384583303901     O025
    0.1007360932959173    0.8984394117880956    0.3969384583303901     O026
    0.6007360932959173    0.3984394117880956    0.3969384583303901     O027
    0.6007360932959173    0.8984394117880956    0.3969384583303901     O028
    0.3843880329373072    0.3261226376103983    0.3582008615665856     O029
    0.3843880329373072    0.8261226376103983    0.3582008615665856     O030
    0.8843880329373072    0.3261226376103983    0.3582008615665856     O031
    0.8843880329373072    0.8261226376103983    0.3582008615665856     O032
    0.3796274714774059    0.3674137947080744    0.4295631747249140     O033
    0.3796274714774059    0.8674137947080744    0.4295631747249140     O034
    0.8796274714774059    0.3674137947080744    0.4295631747249140     O035
    0.8796274714774059    0.8674137947080744    0.4295631747249140     O036
    0.0990679617702362    0.2306753212453657    0.3666313644509391     O037
    0.0990679617702362    0.7306753212453657    0.3666313644509391     O038
    0.5990679617702361    0.2306753212453657    0.3666313644509391     O039
    0.5990679617702361    0.7306753212453657    0.3666313644509391     O040
    0.1192526101344578    0.0746757337220392    0.4158547397288517     O041
    0.1192526101344578    0.5746757337220392    0.4158547397288517     O042
    0.6192526101344578    0.0746757337220392    0.4158547397288517     O043
    0.6192526101344578    0.5746757337220392    0.4158547397288517     O044
    0.3685830088907500    0.0102200959904317    0.3826517212394379     O045
    0.3685830088907500    0.5102200959904317    0.3826517212394379     O046
    0.8685830088907500    0.0102200959904317    0.3826517212394379     O047
    0.8685830088907500    0.5102200959904317    0.3826517212394379     O048
    0.3605158720476342    0.1901470083007041    0.4104526809686351     O049
    0.3605158720476342    0.6901470083007041    0.4104526809686351     O050
    0.8605158720476342    0.1901470083007041    0.4104526809686351     O051
    0.8605158720476342    0.6901470083007041    0.4104526809686351     O052
    0.1160768156516355    0.2541000180082591    0.4407052155316187     O053
    0.1160768156516355    0.7541000180082591    0.4407052155316187     O054
    0.6160768156516355    0.2541000180082591    0.4407052155316187     O055
    0.6160768156516355    0.7541000180082591    0.4407052155316187     O056
    0.0931224326916669    0.1121161907273055    0.4958799750914427     O057
    0.0931224326916669    0.6121161907273054    0.4958799750914427     O058
    0.5931224326916669    0.1121161907273055    0.4958799750914427     O059
    0.5931224326916669    0.6121161907273054    0.4958799750914427     O060
    0.3772208898218883    0.0342109050346204    0.4584234522749804     O061
    0.3772208898218883    0.5342109050346204    0.4584234522749804     O062
    0.8772208898218883    0.0342109050346204    0.4584234522749804     O063
    0.8772208898218883    0.5342109050346204    0.4584234522749804     O064
    0.3750839815583312    0.0802381485226932    0.5301086231085521     O065
    0.3750839815583312    0.5802381485226932    0.5301086231085521     O066
    0.8750839815583312    0.0802381485226932    0.5301086231085521     O067
    0.8750839815583312    0.5802381485226932    0.5301086231085521     O068
    0.0948467408365004    0.4448961506961340    0.4672863771206037     O069
    0.0948467408365004    0.9448961506961340    0.4672863771206037     O070
    0.5948467408365004    0.4448961506961340    0.4672863771206037     O071
    0.5948467408365004    0.9448961506961340    0.4672863771206037     O072
    0.1133779131948934    0.2893365770860938    0.5158348263432670     O073
    0.1133779131948934    0.7893365770860938    0.5158348263432670     O074
    0.6133779131948934    0.2893365770860938    0.5158348263432670     O075
    0.6133779131948934    0.7893365770860938    0.5158348263432670     O076
    0.3564566857490523    0.2254630611544658    0.4848236929991809     O077
    0.3564566857490523    0.7254630611544658    0.4848236929991809     O078
    0.8564566857490523    0.2254630611544658    0.4848236929991809     O079
    0.8564566857490523    0.7254630611544658    0.4848236929991809     O080
    0.3548285010551084    0.4030177621139075    0.5101537718567273     O081
    0.3548285010551084    0.9030177621139075    0.5101537718567273     O082
    0.8548285010551084    0.4030177621139075    0.5101537718567273     O083
    0.8548285010551084    0.9030177621139075    0.5101537718567273     O084
    0.1117497285009492    0.4668912780955330    0.5411649052008196     O085
    0.1117497285009492    0.9668912780955330    0.5411649052008196     O086
    0.6117497285009492    0.4668912780955330    0.5411649052008196     O087
    0.6117497285009492    0.9668912780955330    0.5411649052008196     O088
    0.0885789427725960    0.3249405445419242    0.5964254234750883     O089
    0.0885789427725960    0.8249405445419242    0.5964254234750883     O090
    0.5885789427725960    0.3249405445419242    0.5964254234750883     O091
    0.5885789427725960    0.8249405445419242    0.5964254234750883     O092
    0.3733596734135013    0.2474581885538685    0.5587022210793972     O093
    0.3733596734135013    0.7474581885538685    0.5587022210793972     O094
    0.8733596734135013    0.2474581885538685    0.5587022210793972     O095
    0.8733596734135013    0.7474581885538685    0.5587022210793972     O096
    0.3674703209540846    0.2939149274619031    0.6290501398696122     O097
    0.3674703209540846    0.7939149274619031    0.6290501398696122     O098
    0.8674703209540846    0.2939149274619031    0.6290501398696122     O099
    0.8674703209540846    0.7939149274619031    0.6290501398696122     O100
    0.0909855244281138    0.1581434342153782    0.5675651459250216     O101
    0.0909855244281138    0.6581434342153782    0.5675651459250216     O102
    0.5909855244281139    0.1581434342153782    0.5675651459250216     O103
    0.5909855244281139    0.6581434342153782    0.5675651459250216     O104
    0.1076905422023675    0.0022073308992973    0.6155359172313671     O105
    0.1076905422023675    0.5022073308992974    0.6155359172313671     O106
    0.6076905422023675    0.0022073308992973    0.6155359172313671     O107
    0.6076905422023675    0.5022073308992974    0.6155359172313671     O108
    0.3521295985983622    0.4382543212417396    0.5852833826683830     O109
    0.3521295985983622    0.9382543212417396    0.5852833826683830     O110
    0.8521295985983622    0.4382543212417396    0.5852833826683830     O111
    0.8521295985983622    0.9382543212417396    0.5852833826683830     O112
    0.3489538041155438    0.1176786054779622    0.6101338584711433     O113
    0.3489538041155438    0.6176786054779622    0.6101338584711433     O114
    0.8489538041155438    0.1176786054779622    0.6101338584711433     O115
    0.8489538041155438    0.6176786054779622    0.6101338584711433     O116
    0.0996234053592517    0.1821342432595671    0.6433368769605635     O117
    0.0996234053592517    0.6821342432595671    0.6433368769605635     O118
    0.5996234053592517    0.1821342432595671    0.6433368769605635     O119
    0.5996234053592517    0.6821342432595671    0.6433368769605635     O120
    0.0932331154448002    0.0375886617703082    0.6954423724541540     O121
    0.0932331154448002    0.5375886617703082    0.6954423724541540     O122
    0.5932331154448002    0.0375886617703082    0.6954423724541540     O123
    0.5932331154448002    0.5375886617703082    0.6954423724541540     O124
    0.3691384524797654    0.4616790180046333    0.6593572337490625     O125
    0.3691384524797654    0.9616790180046333    0.6593572337490625     O126
    0.8691384524797654    0.4616790180046333    0.6593572337490625     O127
    0.8691384524797654    0.9616790180046333    0.6593572337490625     O128
    0.3687919248522598    0.9984705701789447    0.7356386565477497     O129
    0.3687919248522598    0.4984705701789447    0.7356386565477497     O130
    0.8687919248522598    0.9984705701789447    0.7356386565477497     O131
    0.8687919248522598    0.4984705701789447    0.7356386565477497     O132
    0.0838183813126943    0.3662317016396004    0.6677877366334160     O133
    0.0838183813126943    0.8662317016396004    0.6677877366334160     O134
    0.5838183813126943    0.3662317016396004    0.6677877366334160     O135
    0.5838183813126943    0.8662317016396004    0.6677877366334160     O136
    0.0161971695670715    0.1713323463375773    0.7488530025208322     O137
    0.0161971695670715    0.6713323463375773    0.7488530025208322     O138
    0.5161971695670715    0.1713323463375773    0.7488530025208322     O139
    0.5161971695670715    0.6713323463375773    0.7488530025208322     O140
    0.3266132502434473    0.1523842639192201    0.6862792137690924     O141
    0.3266132502434473    0.6523842639192201    0.6862792137690924     O142
    0.8266132502434473    0.1523842639192201    0.6862792137690924     O143
    0.8266132502434473    0.6523842639192201    0.6862792137690924     O144
    0.3435777002059324    0.3197983825285542    0.7100062111616512     O145
    0.3435777002059324    0.8197983825285542    0.7100062111616512     O146
    0.8435777002059324    0.3197983825285542    0.7100062111616512     O147
    0.8435777002059324    0.8197983825285542    0.7100062111616512     O148
    0.0924455529891518    0.3747140635074340    0.7425129427393264     O149
    0.0924455529891518    0.8747140635074340    0.7425129427393264     O150
    0.5924455529891519    0.3747140635074340    0.7425129427393264     O151
    0.5924455529891519    0.8747140635074340    0.7425129427393264     O152
