Generated by VASPKIT code
 1.000000
    9.3347317000000007    0.0000000000000000    0.0000000000000000
   -0.1007920200000000   15.0953061840000000    0.0000000000000000
    0.0000000000000000    0.0000000000000000   37.3228053220000007
   Zn   W    O 
    40    32   136
Direct
    0.2575014144485643    0.4054129452292748    0.2796361645198711    Zn001
    0.2575014144485643    0.9054129452292748    0.2796361645198711    Zn002
    0.7575014144485643    0.4054129452292748    0.2796361645198711    Zn003
    0.7575014144485643    0.9054129452292748    0.2796361645198711    Zn004
    0.2817441673789898    0.1834350842073600    0.2751973348617832    Zn005
    0.2817441673789898    0.6834350842073600    0.2751973348617832    Zn006
    0.7817441673789898    0.1834350842073600    0.2751973348617832    Zn007
    0.7817441673789898    0.6834350842073600    0.2751973348617832    Zn008
    0.2429084312438962    0.1289354959557517    0.3676802175878411    Zn009
    0.2429084312438962    0.6289354959557517    0.3676802175878411    Zn010
    0.7429084312438962    0.1289354959557517    0.3676802175878411    Zn011
    0.7429084312438962    0.6289354959557517    0.3676802175878411    Zn012
    0.2342500877002240    0.4302879911166297    0.3557586496691039    Zn013
    0.2342500877002240    0.9302879911166297    0.3557586496691039    Zn014
    0.7342500877002240    0.4302879911166297    0.3557586496691039    Zn015
    0.7342500877002240    0.9302879911166297    0.3557586496691039    Zn016
    0.2351473339247201    0.3433765917974219    0.4711350424056426    Zn017
    0.2351473339247201    0.8433765917974219    0.4711350424056426    Zn018
    0.7351473339247201    0.3433765917974219    0.4711350424056426    Zn019
    0.7351473339247201    0.8433765917974219    0.4711350424056426    Zn020
    0.2361579047752811    0.1359716486025750    0.4548535557943574    Zn021
    0.2361579047752811    0.6359716486025750    0.4548535557943574    Zn022
    0.7361579047752811    0.1359716486025750    0.4548535557943574    Zn023
    0.7361579047752811    0.6359716486025750    0.4548535557943574    Zn024
    0.2370551510497745    0.0490602492833704    0.5702299485308965    Zn025
    0.2370551510497745    0.5490602492833703    0.5702299485308965    Zn026
    0.7370551510497745    0.0490602492833704    0.5702299485308965    Zn027
    0.7370551510497745    0.5490602492833703    0.5702299485308965    Zn028
    0.2283968074561049    0.3504127444442485    0.5583083806121585    Zn029
    0.2283968074561049    0.8504127444442485    0.5583083806121585    Zn030
    0.7283968074561049    0.3504127444442485    0.5583083806121585    Zn031
    0.7283968074561049    0.8504127444442485    0.5583083806121585    Zn032
    0.1895610713210117    0.2959131561926400    0.6507912633382171    Zn033
    0.1895610713210117    0.7959131561926400    0.6507912633382171    Zn034
    0.6895610713210117    0.2959131561926400    0.6507912633382171    Zn035
    0.6895610713210117    0.7959131561926400    0.6507912633382171    Zn036
    0.2138038243014377    0.0739352951707255    0.6463524336801291    Zn037
    0.2138038243014377    0.5739352951707255    0.6463524336801291    Zn038
    0.7138038243014377    0.0739352951707255    0.6463524336801291    Zn039
    0.7138038243014377    0.5739352951707255    0.6463524336801291    Zn040
    0.4881305454887990    0.2689669617784680    0.3220965739005409     W001
    0.4881305454887990    0.7689669617784680    0.3220965739005409     W002
    0.9881305454887990    0.2689669617784680    0.3220965739005409     W003
    0.9881305454887990    0.7689669617784680    0.3220965739005409     W004
    0.0104587324124522    0.0528141796567168    0.2963413227896476     W005
    0.0104587324124522    0.5528141796567168    0.2963413227896476     W006
    0.5104587324124523    0.0528141796567168    0.2963413227896476     W007
    0.5104587324124523    0.5528141796567168    0.2963413227896476     W008
    0.4871754544963718    0.4886026675471395    0.4200700549369931     W009
    0.4871754544963718    0.9886026675471395    0.4200700549369931     W010
    0.9871754544963718    0.4886026675471395    0.4200700549369931     W011
    0.9871754544963718    0.9886026675471395    0.4200700549369931     W012
    0.4869823954472972    0.2788825335928263    0.4063708630368816     W013
    0.4869823954472972    0.7788825335928263    0.4063708630368816     W014
    0.9869823954472972    0.2788825335928263    0.4063708630368816     W015
    0.9869823954472972    0.7788825335928263    0.4063708630368816     W016
    0.4843228433027049    0.2004657068071742    0.5196177351631189     W017
    0.4843228433027049    0.7004657068071742    0.5196177351631189     W018
    0.9843228433027049    0.2004657068071742    0.5196177351631189     W019
    0.9843228433027049    0.7004657068071742    0.5196177351631189     W020
    0.4841297842036294    0.4907455728528607    0.5059185432630069     W021
    0.4841297842036294    0.9907455728528607    0.5059185432630069     W022
    0.9841297842036294    0.4907455728528607    0.5059185432630069     W023
    0.9841297842036294    0.9907455728528607    0.5059185432630069     W024
    0.4608465062875489    0.4265340607432835    0.6296472754103531     W025
    0.4608465062875489    0.9265340607432835    0.6296472754103531     W026
    0.9608465062875489    0.4265340607432835    0.6296472754103531     W027
    0.9608465062875489    0.9265340607432835    0.6296472754103531     W028
    0.4831746932612031    0.2103812786215323    0.6038920242994591     W029
    0.4831746932612031    0.7103812786215323    0.6038920242994591     W030
    0.9831746932612031    0.2103812786215323    0.6038920242994591     W031
    0.9831746932612031    0.7103812786215323    0.6038920242994591     W032
    0.0982300747981333    0.1835604100588648    0.2936951803017573     O001
    0.0982300747981333    0.6835604100588648    0.2936951803017573     O002
    0.5982300747981333    0.1835604100588648    0.2936951803017573     O003
    0.5982300747981333    0.6835604100588648    0.2936951803017573     O004
    0.4018635310196761    0.0970694408144314    0.2585813686910543     O005
    0.4018635310196761    0.5970694408144315    0.2585813686910543     O006
    0.9018635310196761    0.0970694408144314    0.2585813686910543     O007
    0.9018635310196761    0.5970694408144315    0.2585813686910543     O008
    0.3838201567947592    0.1562452513345209    0.3278194281472910     O009
    0.3838201567947592    0.6562452513345209    0.3278194281472910     O010
    0.8838201567947592    0.1562452513345209    0.3278194281472910     O011
    0.8838201567947592    0.6562452513345209    0.3278194281472910     O012
    0.1231257285196540    0.9905602551737183    0.2660110915195444     O013
    0.1231257285196540    0.4905602551737183    0.2660110915195444     O014
    0.6231257285196540    0.9905602551737183    0.2660110915195444     O015
    0.6231257285196540    0.4905602551737183    0.2660110915195444     O016
    0.1282669915866251    0.3531806204120705    0.3172667203171597     O017
    0.1282669915866251    0.8531806204120705    0.3172667203171597     O018
    0.6282669915866251    0.3531806204120705    0.3172667203171597     O019
    0.6282669915866251    0.8531806204120705    0.3172667203171597     O020
    0.3750896885501036    0.3014832864975550    0.2815615442082471     O021
    0.3750896885501036    0.8014832864975550    0.2815615442082471     O022
    0.8750896885501036    0.3014832864975550    0.2815615442082471     O023
    0.8750896885501036    0.8014832864975550    0.2815615442082471     O024
    0.3809133278840269    0.4716962806116249    0.3125750062673973     O025
    0.3809133278840269    0.9716962806116249    0.3125750062673973     O026
    0.8809133278840269    0.4716962806116249    0.3125750062673973     O027
    0.8809133278840269    0.9716962806116249    0.3125750062673973     O028
    0.1275171574582655    0.0464553203210014    0.3374587692572635     O029
    0.1275171574582655    0.5464553203210014    0.3374587692572635     O030
    0.6275171574582655    0.0464553203210014    0.3374587692572635     O031
    0.6275171574582655    0.5464553203210014    0.3374587692572635     O032
    0.0948609309807447    0.3991241004365066    0.3955482730080466     O033
    0.0948609309807447    0.8991241004365066    0.3955482730080466     O034
    0.5948609309807447    0.3991241004365066    0.3955482730080466     O035
    0.5948609309807447    0.8991241004365066    0.3955482730080466     O036
    0.3786803320416330    0.3224396596937045    0.3581650583662677     O037
    0.3786803320416330    0.8224396596937045    0.3581650583662677     O038
    0.8786803320416330    0.3224396596937045    0.3581650583662677     O039
    0.8786803320416330    0.8224396596937045    0.3581650583662677     O040
    0.3767861509750873    0.3668633789915932    0.4303448631541251     O041
    0.3767861509750873    0.8668633789915932    0.4303448631541251     O042
    0.8767861509750873    0.3668633789915932    0.4303448631541251     O043
    0.8767861509750873    0.8668633789915932    0.4303448631541251     O044
    0.0963074145088512    0.2309400948422751    0.3674356054665198     O045
    0.0963074145088512    0.7309400948422751    0.3674356054665198     O046
    0.5963074145088512    0.2309400948422751    0.3674356054665198     O047
    0.5963074145088512    0.7309400948422751    0.3674356054665198     O048
    0.1164856648923220    0.0766302472800835    0.4155382493853996     O049
    0.1164856648923220    0.5766302472800835    0.4155382493853996     O050
    0.6164856648923220    0.0766302472800835    0.4155382493853996     O051
    0.6164856648923220    0.5766302472800835    0.4155382493853996     O052
    0.3594875216568849    0.0132213566339262    0.3854320540747468     O053
    0.3594875216568849    0.5132213566339263    0.3854320540747468     O054
    0.8594875216568849    0.0132213566339262    0.3854320540747468     O055
    0.8594875216568849    0.5132213566339263    0.3854320540747468     O056
    0.3563702828950299    0.1905278502876936    0.4093893721374786     O057
    0.3563702828950299    0.6905278502876936    0.4093893721374786     O058
    0.8563702828950299    0.1905278502876936    0.4093893721374786     O059
    0.8563702828950299    0.6905278502876936    0.4093893721374786     O060
    0.1136862321888918    0.2541580867679896    0.4413045536142857     O061
    0.1136862321888918    0.7541580867679896    0.4413045536142857     O062
    0.6136862321888918    0.2541580867679896    0.4413045536142857     O063
    0.6136862321888918    0.7541580867679896    0.4413045536142857     O064
    0.0945190877749114    0.1124848614084070    0.4956437350458749     O065
    0.0945190877749114    0.6124848614084070    0.4956437350458749     O066
    0.5945190877749114    0.1124848614084070    0.4956437350458749     O067
    0.5945190877749114    0.6124848614084070    0.4956437350458749     O068
    0.3774203926127035    0.0347934318020182    0.4591360088948480     O069
    0.3774203926127035    0.5347934318020182    0.4591360088948480     O070
    0.8774203926127035    0.0347934318020182    0.4591360088948480     O071
    0.8774203926127035    0.5347934318020182    0.4591360088948480     O072
    0.3764443077192563    0.0802241399634904    0.5304403251919527     O073
    0.3764443077192563    0.5802241399634904    0.5304403251919527     O074
    0.8764443077192563    0.0802241399634904    0.5304403251919527     O075
    0.8764443077192563    0.5802241399634904    0.5304403251919527     O076
    0.0938848460872977    0.4445548085979820    0.4668525893051521     O077
    0.0938848460872977    0.9445548085979820    0.4668525893051521     O078
    0.5938848460872977    0.4445548085979820    0.4668525893051521     O079
    0.5938848460872977    0.9445548085979820    0.4668525893051521     O080
    0.1149349558549723    0.2888203900623094    0.5165992260625215     O081
    0.1149349558549723    0.7888203900623094    0.5165992260625215     O082
    0.6149349558549723    0.2888203900623094    0.5165992260625215     O083
    0.6149349558549723    0.7888203900623094    0.5165992260625215     O084
    0.3576190065111096    0.2251901536320071    0.4846840445857215     O085
    0.3576190065111096    0.7251901536320071    0.4846840445857215     O086
    0.8576190065111096    0.2251901536320071    0.4846840445857215     O087
    0.8576190065111096    0.7251901536320071    0.4846840445857215     O088
    0.3548195738076791    0.4027179930699161    0.5104503488145931     O089
    0.3548195738076791    0.9027179930699161    0.5104503488145931     O090
    0.8548195738076791    0.4027179930699161    0.5104503488145931     O091
    0.8548195738076791    0.9027179930699161    0.5104503488145931     O092
    0.1118177170431164    0.4661268837660740    0.5405565441252530     O093
    0.1118177170431164    0.9661268837660740    0.5405565441252530     O094
    0.6118177170431164    0.4661268837660740    0.5405565441252530     O095
    0.6118177170431164    0.9661268837660740    0.5405565441252530     O096
    0.0874850819052422    0.3231029890654794    0.5981691700527090     O097
    0.0874850819052422    0.8231029890654794    0.5981691700527090     O098
    0.5874850819052422    0.3231029890654794    0.5981691700527090     O099
    0.5874850819052422    0.8231029890654794    0.5981691700527090     O100
    0.3749978242411508    0.2484081455577252    0.5585529927334806     O101
    0.3749978242411508    0.7484081455577252    0.5585529927334806     O102
    0.8749978242411508    0.2484081455577252    0.5585529927334806     O103
    0.8749978242411508    0.7484081455577252    0.5585529927334806     O104
    0.3730751639018678    0.2957878303411354    0.6322934178982421     O105
    0.3730751639018678    0.7957878303411354    0.6322934178982421     O106
    0.8730751639018678    0.2957878303411354    0.6322934178982421     O107
    0.8730751639018678    0.7957878303411354    0.6322934178982421     O108
    0.0926249067083692    0.1569085807062959    0.5678235398337326     O109
    0.0926249067083692    0.6569085807062959    0.5678235398337326     O110
    0.5926249067083693    0.1569085807062959    0.5678235398337326     O111
    0.5926249067083693    0.6569085807062959    0.5678235398337326     O112
    0.0903919108159743    0.0076519597383745    0.6134135919326026     O113
    0.0903919108159743    0.5076519597383746    0.6134135919326026     O114
    0.5903919108159743    0.0076519597383745    0.6134135919326026     O115
    0.5903919108159743    0.5076519597383746    0.6134135919326026     O116
    0.3437880812917330    0.4328929200789990    0.5885298289427362     O117
    0.3437880812917330    0.9328929200789990    0.5885298289427362     O118
    0.8437880812917330    0.4328929200789990    0.5885298289427362     O119
    0.8437880812917330    0.9328929200789990    0.5885298289427362     O120
    0.3430382471133764    0.1261676199379322    0.6087218778828395     O121
    0.3430382471133764    0.6261676199379322    0.6087218778828395     O122
    0.8430382471133764    0.1261676199379322    0.6087218778828395     O123
    0.8430382471133764    0.6261676199379322    0.6087218778828395     O124
    0.0962155501998981    0.1778649539024455    0.6444270539917527     O125
    0.0962155501998981    0.6778649539024455    0.6444270539917527     O126
    0.5962155501998981    0.1778649539024455    0.6444270539917527     O127
    0.5962155501998981    0.6778649539024455    0.6444270539917527     O128
    0.3481795101803473    0.4887879852262820    0.6599775066804563     O129
    0.3481795101803473    0.9887879852262820    0.6599775066804563     O130
    0.8481795101803473    0.4887879852262820    0.6599775066804563     O131
    0.8481795101803473    0.9887879852262820    0.6599775066804563     O132
    0.0694417076803252    0.3822787995855651    0.6674072295089457     O133
    0.0694417076803252    0.8822787995855651    0.6674072295089457     O134
    0.5694417076803252    0.3822787995855651    0.6674072295089457     O135
    0.5694417076803252    0.8822787995855651    0.6674072295089457     O136
